0.9643913527	pervasive computing
0.9640253157	compressed sensing
0.9630754137	cultural heritage
0.9616060314	collaborative filtering
0.9615005835	virtual reality
0.9613716390	ubiquitous computing
0.9612256318	maximum entropy
0.9604302685	higher education
0.9603610942	vector quantization
0.9589899612	cognitive radio
0.9585581522	dimension reduction
0.9583101789	conflict resolution
0.9582292282	visual analytics
0.9580839403	particle filtering
0.9579751567	kalman filter
0.9579321889	fourier transform
0.9578846743	belief propagation
0.9576865312	resource management
0.9576739364	relational databases
0.9574220002	random walk
0.9569744002	fading channels
0.9569303991	quality assurance
0.9566518494	nash equilibrium
0.9564873996	virtual screening
0.9564048527	filter banks
0.9562107318	breast cancer
0.9561692182	decision tree
0.9560947721	video surveillance
0.9560740747	business intelligence
0.9559195027	computational intelligence
0.9554181468	reverse engineering
0.9553808917	mutual exclusion
0.9553772968	relevance feedback
0.9551847203	triangle inequality
0.9549289298	decision trees
0.9548929374	swarm intelligence
0.9547702825	error correction
0.9547641292	formal verification
0.9547521433	logistic regression
0.9546062121	outage probability
0.9545874718	antenna array
0.9545457794	von neumann
0.9543427478	carbon nanotube
0.9543136230	knowledge base
0.9543108523	ambient intelligence
0.9541331133	matrix multiplication
0.9540734959	simulated annealing
0.9538422793	logic programming
0.9538318043	zernike moments
0.9538086163	resource allocation
0.9537192086	interference cancellation
0.9536797424	nash equilibria
0.9535202605	finite element
0.9533710578	object recognition
0.9533661174	collision avoidance
0.9533413278	fuzzy logic
0.9533339497	stereo vision
0.9533212621	natural language
0.9533158591	alzheimers disease
0.9531462662	quadratic programming
0.9530493827	disturbance rejection
0.9530424135	inverted pendulum
0.9530090461	spatial multiplexing
0.9529222332	resource usage
0.9526645634	stock market
0.9525518577	gaussian mixture
0.9524412128	financial crisis
0.9523117081	virtual environments
0.9521946155	social networking
0.9521705810	dimensionality reduction
0.9521422378	particle filter
0.9520353918	neural network nn
0.9519251591	drug discovery
0.9519136201	emergency response
0.9518966268	image compression
0.9517626513	bayesian inference
0.9517360727	virtual machines
0.9516626962	user interfaces
0.9516199652	information retrieval
0.9515678554	cellular automaton
0.9515159617	health care
0.9514828762	nash bargaining
0.9512346765	lagrangian relaxation
0.9509501760	electroencephalogram eeg
0.9508724296	spherical harmonics
0.9507714575	software engineering
0.9507679539	edit distance
0.9507629977	delaunay triangulation
0.9505704768	risk assessment
0.9503965650	video streaming
0.9502734287	discontinuous galerkin
0.9501532216	integer programming
0.9501363716	smart homes
0.9501112479	web portal
0.9500797686	proportional fairness
0.9500779546	hyperspectral imagery
0.9499284143	cognitive radio cr
0.9498113757	power allocation
0.9497958716	carbon nanotubes
0.9497939492	dynamically reconfigurable
0.9497323595	augmented reality
0.9496948332	importance sampling
0.9496565472	fault tolerance
0.9496439789	total variation
0.9495451540	user experience
0.9495440491	kalman filtering
0.9495230560	smart cards
0.9495087289	query answering
0.9495013336	reinforcement learning rl
0.9494546304	inverse kinematics
0.9494519473	mobile phone
0.9491744132	congestion control
0.9491574023	doppler spread
0.9490978562	power supply
0.9490199641	ray tracing
0.9489979582	machine translation
0.9488279793	tabu search
0.9487804391	voronoi diagram
0.9487338189	anomaly detection
0.9486399590	fir filters
0.9486232116	option pricing
0.9485566367	optical flow
0.9484891998	wireless lan
0.9484639657	remote sensing
0.9484415024	smart home
0.9484261066	question answering
0.9483978370	regular expressions
0.9483066240	signal strength
0.9481446013	bp neural network
0.9481273640	image registration
0.9480522480	lagrange multiplier
0.9480084972	mass spectrometry
0.9480076687	reinforcement learning
0.9478860951	artificial intelligence ai
0.9478404496	differential evolution
0.9477555607	active contours
0.9477287667	machine learning
0.9476515594	association rules
0.9476423821	turing machine
0.9475843070	markovian jump
0.9475019513	energy minimization
0.9472395084	rician fading
0.9471508279	recurrent neural network
0.9471044099	cognitive radios
0.9470850831	electrocardiogram ecg
0.9470636577	search engine
0.9470412910	packet reception
0.9470009166	medium access
0.9469931127	cellular networks
0.9469726803	fault injection
0.9469612105	minimum spanning tree
0.9468771411	coalition formation
0.9468111832	bundle adjustment
0.9467864662	template matching
0.9467537471	earth observation
0.9467493515	situation awareness
0.9467484347	transfer function
0.9467078007	krylov subspace
0.9466559872	keyword search
0.9466240940	digital libraries
0.9466187699	genetic algorithms
0.9465138884	pose estimation
0.9464708511	normal form
0.9463217920	linear regression
0.9462947309	periodic orbits
0.9462763514	induction motor
0.9462479366	lung cancer
0.9461774573	unscented kalman filter
0.9461704304	stereo matching
0.9461555999	bounding box
0.9461085294	photometric stereo
0.9461023730	exit chart
0.9460844635	spanning tree
0.9460636243	combinatorial auctions
0.9460576661	receptive fields
0.9460308876	web browser
0.9459442343	semiconductor manufacturing
0.9459318462	knowledge discovery
0.9458886163	game theory
0.9458659392	bloom filters
0.9458605337	linear programming
0.9458443682	multicore architectures
0.9458084279	outlier detection
0.9457436456	visually impaired
0.9454858470	inertia weight
0.9454655213	hough transform
0.9454629477	requirements engineering
0.9454345890	expected utility
0.9453864614	hearing aids
0.9453730125	dynamic programming
0.9453261360	anisotropic diffusion
0.9452910542	pattern matching
0.9452550529	spoken language
0.9451716698	ant colony optimization aco
0.9451519939	disjoint paths
0.9451384744	virtual machine
0.9451359088	chemical reaction
0.9450575495	electronic commerce
0.9450356106	physical layer
0.9449680803	wavelet transform
0.9448975757	target tracking
0.9448441645	sliding window
0.9448325370	evolutionary computation
0.9447586333	left ventricular
0.9447479490	subgraph isomorphism
0.9446824178	feature selection
0.9446184071	evolutionary algorithms
0.9445539888	bipartite graph
0.9445121600	air pollution
0.9445019822	edge detection
0.9444565891	active contour
0.9444500735	blood flow
0.9444403278	impulse response
0.9443842491	hilbert transform
0.9443838593	handwriting recognition
0.9443697535	shortest path
0.9443325020	load balancing
0.9443296111	column generation
0.9442888076	dc motor
0.9442049855	leader election
0.9441762488	instant messaging
0.9441511886	bacterial foraging
0.9440691958	timed automata
0.9440426371	mutual authentication
0.9440218604	propositional logic
0.9439962363	sar interferometry
0.9439961476	wave propagation
0.9439638727	robot manipulators
0.9439304677	human body
0.9439138953	power saving
0.9439032819	parameter estimation
0.9438998905	lattice boltzmann
0.9438950369	buffer overflow
0.9438704234	random forest
0.9437534872	elliptic curves
0.9437186097	bilateral teleoperation
0.9435934799	transitive closure
0.9435898279	mutual information
0.9435481380	user interface
0.9435370065	von mises
0.9434853604	service provider
0.9434248806	discrete wavelet transform
0.9434083380	capsule endoscopy
0.9433940211	web server
0.9433756960	base station
0.9433518224	intrusion detection
0.9433002783	climate change
0.9432456340	frequent itemsets
0.9432329675	parkinsons disease
0.9432289709	bayesian network
0.9431987277	granger causality
0.9431745532	collective intelligence
0.9431367368	blood vessels
0.9431197685	logic gates
0.9430762093	alternative splicing
0.9430453007	sliding mode
0.9429295689	virtual worlds
0.9429077846	orthonormal basis
0.9428139351	packet losses
0.9427630771	rss feeds
0.9427363853	genetic programming
0.9426281051	computational biology
0.9426144548	bayesian networks
0.9425810805	social tagging
0.9425699889	finite automata
0.9425187716	textual entailment
0.9424836153	optic flow
0.9424412144	conjugate gradient
0.9424217947	gesture recognition
0.9424207330	supply chain management
0.9422778569	medical imaging
0.9421986048	genetic algorithm ga
0.9421743136	blood pressure
0.9421260528	augmented reality ar
0.9421192295	text categorization
0.9420892331	ant colonies
0.9420647035	quantum mechanics
0.9420328158	filter bank
0.9420201629	shortest paths
0.9419998325	fuel consumption
0.9419758386	kalman filters
0.9419458322	mathematical programming
0.9419204384	text mining
0.9418210787	grid computing
0.9418110204	directional antennas
0.9417935209	description logics
0.9417733478	ridge regression
0.9417301376	spread spectrum
0.9417069307	slotted aloha
0.9417020592	particle filters
0.9417019792	cloud computing
0.9416597524	channel estimation
0.9416069640	cellular automata
0.9414866715	prostate cancer
0.9414865413	consumer electronics
0.9414371550	semantic web
0.9414128686	license plates
0.9413457390	virtual reality vr
0.9413127068	routing protocol
0.9412641473	tikhonov regularization
0.9412189320	health monitoring
0.9411803797	supply chains
0.9411164336	energy conservation
0.9411078866	associative memory
0.9410865051	multicore processor
0.9410605193	wave equation
0.9410589052	dominating set
0.9410511206	nearest neighbors
0.9410258680	social networking sites
0.9410089273	radio resource management
0.9410049835	license plate
0.9409797469	ray casting
0.9409536618	minimum distance
0.9409519438	histogram equalization
0.9409471223	neural network
0.9409381402	emergency department
0.9409093489	blood glucose
0.9409033139	noun phrases
0.9408384407	roc curve
0.9407933407	regular expression
0.9407825322	web browsers
0.9407704066	hopf bifurcation
0.9406713181	cognitive science
0.9406410047	qos provisioning
0.9406309561	chronic diseases
0.9405784269	modal logic
0.9405727886	analog circuits
0.9405002688	taylor series
0.9404846821	state machines
0.9404734658	humanoid robot
0.9404705236	cellular phones
0.9404682468	porous medium
0.9404007900	frequency reuse
0.9403774018	surface roughness
0.9403306838	induction motors
0.9402974674	voronoi diagrams
0.9402841676	heart rate
0.9402592582	quantum dot
0.9402385654	stream ciphers
0.9401950105	admission control
0.9401780879	stream cipher
0.9401770283	heart rate variability
0.9400656493	word sense disambiguation
0.9400001960	mobile robot
0.9399369050	geographic routing
0.9398941884	web service
0.9398240590	fault tolerant
0.9398161069	turbo equalization
0.9397986350	fault diagnosis
0.9397728899	piecewise linear
0.9397556677	google earth
0.9397411642	random access
0.9397323373	web page
0.9397222839	cross correlation
0.9397151814	sequent calculus
0.9397113932	privacy protection
0.9396991649	petri net
0.9396800380	spoken dialogue
0.9396099194	pattern recognition
0.9396075122	laser scanner
0.9396073676	vital signs
0.9395261146	query expansion
0.9395019847	access control
0.9394841971	fluid flow
0.9394787609	theorem provers
0.9394772375	elliptic curve cryptography
0.9394274188	digital tv
0.9393912837	mobile wimax
0.9393876535	traveling wave
0.9393049935	gabor filters
0.9392203065	carrier sensing
0.9392116153	ant colony optimization
0.9392045017	speech recognition
0.9391590908	garbage collection
0.9391148799	service composition
0.9391130957	image retrieval
0.9390093643	artificial neural network
0.9389910166	p2p networks
0.9389790896	genetic algorithm
0.9389288669	portfolio selection
0.9389248033	latent variable
0.9389149712	feature extraction
0.9388583661	multicore processors
0.9387421743	relational algebra
0.9386880343	buck converter
0.9386853357	spanning trees
0.9386829496	cooperative diversity
0.9386667258	blind deconvolution
0.9386021256	black hole
0.9385906249	convex hull
0.9385680362	antenna arrays
0.9385541156	fault detection
0.9385355000	multiuser diversity
0.9384501806	molecular dynamics
0.9384014615	spiking neurons
0.9383699746	photo collections
0.9382887160	graphics processors
0.9382170859	electroencephalography eeg
0.9382078920	instruction set
0.9382076516	linear programming lp
0.9381329048	life sciences
0.9380779182	bandwidth allocation
0.9380620961	eye movements
0.9380028742	air traffic control
0.9379974917	random forests
0.9379909810	digital library
0.9379598175	ant colony
0.9378874415	multipath fading channels
0.9378242459	receive antenna
0.9377844803	obstacle avoidance
0.9377813181	user preferences
0.9377459623	mobile ad hoc networks
0.9377246019	block ciphers
0.9377213419	relay selection
0.9376512400	source localization
0.9376441148	hash table
0.9375798010	linear algebra
0.9375491049	iq imbalance
0.9375257711	moment invariants
0.9375195163	facility location
0.9375112596	multiobjective optimization
0.9375049398	public health
0.9374895955	supervised learning
0.9374869495	constraint satisfaction
0.9374823537	decision support
0.9374507394	boost converter
0.9374449514	markov chains
0.9374146265	soft computing
0.9373330082	social bookmarking
0.9373139358	spectrum sensing
0.9372921490	turbo codes
0.9372325674	discriminant analysis
0.9372207191	polyphonic music
0.9372191532	local search
0.9371742402	identity theft
0.9371061617	image segmentation
0.9370776381	disaster recovery
0.9370742900	riccati equation
0.9370320079	hash functions
0.9369980413	base stations
0.9369883836	knowledge bases
0.9369670027	dos attacks
0.9369549418	radon transform
0.9369130929	convex hulls
0.9368880239	packet scheduling
0.9368875681	clinical trials
0.9368814618	collision detection
0.9368723589	java bytecode
0.9368465872	discussion forums
0.9368185351	mixed reality
0.9367796048	open source software
0.9367791179	abstract interpretation
0.9367310976	rapid prototyping
0.9367244493	associative memories
0.9367051482	credit scoring
0.9367019420	beating heart
0.9366548095	wireless sensor networks wsns
0.9366317222	transmission line
0.9365948583	key establishment
0.9365713409	hash function
0.9365683852	speaker diarization
0.9365600590	diffusion tensor
0.9365130209	virtual world
0.9364394823	rayleigh fading channels
0.9364029967	visual servoing
0.9363868471	soil moisture
0.9363829064	multidimensional scaling
0.9363703442	crude oil
0.9363423760	particle swarm
0.9363006260	quantum key distribution
0.9362993661	p2p overlay
0.9362595070	modal logics
0.9362137861	gene expression profiles
0.9361918595	risk minimization
0.9361664050	ovarian cancer
0.9360583449	subcarrier allocation
0.9360501532	collaborative filtering cf
0.9360432762	graphics hardware
0.9359654415	sequence diagrams
0.9359570639	cyclic prefix
0.9359266140	channel assignment
0.9358886664	coronary artery
0.9358852632	coronary arteries
0.9358825428	partially observable
0.9358336759	message authentication
0.9358291548	epipolar geometry
0.9358259117	iterative decoding
0.9358018547	compressive sensing
0.9357408104	taylor expansion
0.9356556383	wireless ad hoc networks
0.9356243587	smt solvers
0.9356183309	network coding
0.9355908172	imperfect channel estimation
0.9355309819	rough set
0.9355128666	speaker recognition
0.9355015278	internet access
0.9354752456	relay station
0.9354649068	knowledge management km
0.9354496184	secret key
0.9354288401	motion estimation
0.9353417419	wireless lans
0.9352830398	stream processing
0.9352747860	transcriptional regulatory
0.9352169645	laser scanning
0.9352009002	convolutional codes
0.9351520655	video coding
0.9351419861	background subtraction
0.9351204718	elliptic curve
0.9351126673	stochastic differential equations
0.9350616502	hamiltonian cycle
0.9350209639	intellectual property
0.9350094782	linkage disequilibrium
0.9350060350	life science
0.9349786717	model checking
0.9349686282	marching cubes
0.9349628141	atrial fibrillation
0.9349571633	contrast enhancement
0.9349569718	wheeled mobile robot
0.9349374233	grounded theory
0.9349290172	successive interference cancellation
0.9349244607	older adults
0.9348990504	string matching
0.9348861810	mutual information mi
0.9348710698	diffusion tensor imaging dti
0.9348475076	web services
0.9348466165	electric field
0.9347355098	ip address
0.9347171402	radial basis function
0.9347112426	differentially expressed
0.9346991841	public key
0.9346297141	hardware accelerator
0.9346284831	gene expression
0.9346270756	chip multiprocessors cmps
0.9345985681	description logic
0.9345762567	similarity measure
0.9345664579	lessons learned
0.9345465234	harris corner
0.9345373236	gabor wavelet
0.9344936151	medical diagnosis
0.9344857471	web service composition
0.9343385189	convex optimization
0.9342827164	fiber optic
0.9342763930	electrical stimulation
0.9342037285	wavelet packet
0.9341980180	benders decomposition
0.9341400537	reference frame
0.9340971304	genetic programming gp
0.9340969319	xml documents
0.9340717237	web site
0.9340495895	mobile terminals
0.9340354330	customer relationship management
0.9340009140	augmented lagrangian
0.9339761198	image restoration
0.9339533440	petri nets
0.9339154749	spoken dialog
0.9339044576	sat solvers
0.9339003813	customer satisfaction
0.9338904986	nearest neighbor
0.9338316077	artificial immune
0.9338303886	register allocation
0.9338118102	statistical machine translation
0.9337668485	error concealment
0.9337205887	satellite imagery
0.9337181173	object tracking
0.9336665809	energy saving
0.9336432794	image reconstruction
0.9336346492	cyclic prefix cp
0.9336146345	photonic crystal
0.9335907919	base stations bss
0.9335868297	simulated annealing sa
0.9335656473	medium access control
0.9335590042	named entities
0.9335277340	bilinear pairings
0.9335273057	correlation coefficient
0.9335266845	chemical reactions
0.9335171445	path planning
0.9334925696	point clouds
0.9334907433	equivalence checking
0.9334809116	cooperative relaying
0.9334778630	active learning
0.9334492106	cultural differences
0.9334491767	variational bayesian
0.9334289668	face recognition
0.9333941667	gray level
0.9333825441	finite volume
0.9333498787	graph coloring
0.9332078854	remotely sensed
0.9332042227	rfid tags
0.9331940562	mac protocol
0.9331809715	chip multiprocessors
0.9331251665	owl ontologies
0.9331060829	partially ordered
0.9331040627	traveling salesman problem tsp
0.9330938628	maximum degree
0.9330782605	integral equation
0.9330206994	emotion recognition
0.9330143627	face detection
0.9329916414	neural networks
0.9329337119	fast fourier transform
0.9329217724	ldpc codes
0.9329191712	pid controller
0.9329037835	balanced scorecard
0.9328737349	spatially correlated
0.9328649512	underwater acoustic
0.9328202499	packet forwarding
0.9327562879	distributive lattice
0.9327551779	artificial life
0.9327394048	preferential attachment
0.9327089017	mathematical morphology
0.9326658383	named entity
0.9326643902	block cipher
0.9326624646	real estate
0.9326473559	constraint programming
0.9326463832	lossy compression
0.9326087076	open source
0.9326073745	chip multiprocessor
0.9326044894	sat solver
0.9325898138	ldpc decoder
0.9325420839	computational geometry
0.9325045883	diffusion tensor imaging
0.9324911211	hausdorff distance
0.9324866331	young adults
0.9324776059	financial markets
0.9324673706	cellular phone
0.9324637477	frequency hopping
0.9324570826	biped walking
0.9324302570	differentially expressed genes
0.9324288882	graph cuts
0.9324127444	carrier frequency offset
0.9324125505	left ventricle
0.9323853567	hamming distance
0.9323839006	gigabit ethernet
0.9323621554	floating point
0.9323465764	image processing
0.9323172476	test suite
0.9322780032	shared memory
0.9322766427	artificial neural networks
0.9322646131	affinity propagation
0.9322483583	molecular dynamics md
0.9322470943	rotation invariant
0.9321917440	kernel density estimation
0.9321873482	positive semidefinite
0.9321703783	word sense disambiguation wsd
0.9321612373	privacy preserving
0.9321288188	job scheduling
0.9321246952	oblivious transfer
0.9320979739	metric spaces
0.9320866130	coordinate descent
0.9320801806	charge pump
0.9320282173	machine vision
0.9319544985	semidefinite programming
0.9319393731	robot arm
0.9319357365	planar graphs
0.9318906508	parallel programming
0.9318882006	riccati equations
0.9318879751	molecular biology
0.9318393891	fuel cell
0.9318358345	spike train
0.9318300170	mac layer
0.9317907331	renewable energy
0.9317895829	maximum likelihood
0.9317737695	contourlet transform
0.9317474426	transmit diversity
0.9317326498	strip packing
0.9316638061	genetic algorithms ga
0.9316617079	blind source separation
0.9316606636	round robin
0.9316311060	hidden markov
0.9316309357	partially occluded
0.9316099004	visual odometry
0.9316013482	graphical user interfaces
0.9315992293	piecewise affine
0.9315674880	diesel engine
0.9315661254	wavelet transforms
0.9315459593	white noise
0.9315423558	power amplifier
0.9314913142	variational inequalities
0.9314770674	infinite horizon
0.9314618523	reinforced concrete
0.9314303665	noun phrase
0.9313774906	vertical handover
0.9312990820	early warning
0.9312667361	square root
0.9312522399	reactive power
0.9312424366	base station bs
0.9311673162	supervisory control
0.9310965001	ct scans
0.9310949828	receding horizon
0.9310928084	minimum variance
0.9310862266	nand flash
0.9310530855	curvelet transform
0.9309787687	forest fires
0.9309487581	steering wheel
0.9309393695	combinatorial auction
0.9309327559	artificial neural networks ann
0.9309257347	ultrawideband uwb
0.9309234588	risk management
0.9309225620	smart card
0.9309107074	signal processing
0.9308899600	rate adaptation
0.9308867318	fiber tracts
0.9308482760	markov chain
0.9308377912	naive bayes
0.9308182129	secret sharing
0.9307894951	flash memory
0.9307773806	relay stations
0.9307747839	particle swarm optimization pso
0.9307432377	sliding mode control
0.9307304062	spectrum sharing
0.9307054204	vertical handoff
0.9307004115	genetic algorithms gas
0.9306762128	spatial reuse
0.9306522208	service discovery
0.9306153083	congestion avoidance
0.9305881949	traitor tracing
0.9305723508	cubic spline
0.9305478446	matrix factorization
0.9305371589	switched reluctance
0.9304602659	haar wavelet
0.9304510505	mahalanobis distance
0.9304312201	carotid artery
0.9304154846	container terminal
0.9303993215	independent component analysis ica
0.9303834450	social capital
0.9303822364	cognitive load
0.9303753895	pid controllers
0.9303410458	crosscutting concerns
0.9303335829	magnetic field
0.9302932619	touch screen
0.9302855853	sql injection
0.9302730768	insider threat
0.9302640000	semantic relatedness
0.9302474703	parameter tuning
0.9302311574	directional antenna
0.9302067826	source separation
0.9301742022	bloom filter
0.9301719376	authenticated encryption
0.9301475926	pos tagging
0.9301166722	massively parallel
0.9301165201	cervical cancer
0.9301071693	millimeter wave
0.9300893743	wind tunnel
0.9300393243	belief propagation bp
0.9300081412	rough set theory
0.9300002025	short term
0.9299775984	qr decomposition
0.9299333580	granular computing
0.9299304932	broadcast news
0.9299018413	risk aversion
0.9298930531	differential equations
0.9298702937	support vector machines svm
0.9298691967	robotic manipulators
0.9297989940	locality preserving
0.9297980303	industrial automation
0.9297857869	spiking neuron
0.9297514985	winner determination
0.9297384748	cross layer
0.9297371442	factors influencing
0.9297004021	minimum cost
0.9296787484	dynamical systems
0.9296700452	google scholar
0.9296290574	rake receiver
0.9296206800	message passing
0.9296016885	alzheimers disease ad
0.9296005730	blood vessel
0.9295909995	game theoretic
0.9295726993	automatic speech recognition asr
0.9295573514	injection molding
0.9295449967	transmit beamforming
0.9295166425	goal programming
0.9294775143	wind turbine
0.9294519973	frequency domain
0.9294517650	iris recognition
0.9294487787	sign language
0.9294218412	fractal dimension
0.9293952001	designated verifier
0.9293931630	blind source separation bss
0.9293854320	interference mitigation
0.9293674634	rewriting logic
0.9292811805	latent variables
0.9292615523	thermal infrared
0.9292607255	carrier frequency offsets
0.9292356467	broadband wireless access
0.9292132797	web browsing
0.9292009735	event detection
0.9291999025	intrusion prevention
0.9291841720	home automation
0.9291647022	copyright protection
0.9291577040	naive bayesian
0.9291328297	rfid reader
0.9291173271	autonomic computing
0.9290462981	humanoid robots
0.9290180558	naive bayes classifier
0.9290126986	frequency offsets
0.9289602759	leakage power
0.9289335549	pushdown automata
0.9288850671	automatic speech recognition
0.9288815312	majority voting
0.9288657578	affine transformation
0.9288523081	social media
0.9288099694	video codec
0.9287968933	frequency offset
0.9287833562	cell phone
0.9286763591	key exchange
0.9286203581	dependency parsing
0.9286147483	provably secure
0.9285451172	bell labs
0.9285372142	opinion mining
0.9285305737	water vapor
0.9285205599	esd protection
0.9284414580	resource reservation
0.9284222021	forward secrecy
0.9284170867	phased array
0.9284147122	rayleigh fading
0.9283836830	context awareness
0.9283680662	denotational semantics
0.9283474822	synthetic aperture
0.9283472914	unmanned aerial vehicles
0.9283395100	digital watermarking
0.9283188811	parallel processing
0.9282902345	vocal tract
0.9282839481	unconditionally secure
0.9282187707	open access
0.9281955447	receive antennas
0.9281768482	riemannian manifold
0.9281478756	hidden markov model hmm
0.9281179702	ad hoc networks
0.9281140567	imperfect csi
0.9279916839	file sharing
0.9279843217	compressed sensing cs
0.9279600956	rough sets
0.9279305208	linux kernel
0.9279018820	medial axis
0.9279009696	traveling salesman
0.9278883500	maximum likelihood estimation
0.9278863034	hot spot
0.9278688288	broadband wireless
0.9278487543	nand flash memory
0.9278329758	colored petri nets
0.9278091461	coloured petri nets
0.9277789361	sea surface
0.9277739033	speaker identification
0.9277557246	integrated circuits
0.9277538366	association rule
0.9277342135	hopfield neural network
0.9277079523	sift descriptor
0.9276708942	spatial correlation
0.9276585297	buchi automata
0.9276366779	betweenness centrality
0.9276263767	laser range finder
0.9276204083	north american
0.9276185102	finite element method
0.9275481901	keyword spotting
0.9275218562	vertex cover
0.9274996486	infectious diseases
0.9274806383	live streaming
0.9274608034	computed tomography ct
0.9274603651	job shop
0.9274136544	particle swarm optimisation
0.9273681501	recurrent neural networks
0.9273281380	secret message
0.9272809517	systolic array
0.9272744033	decision maker
0.9272524344	reconfigurable hardware
0.9272456161	semantic annotations
0.9272348122	land cover
0.9272192003	heat exchanger
0.9271961181	preventive maintenance
0.9271926131	symbolic execution
0.9271859933	online communities
0.9271289329	intercell interference
0.9271060844	wavelet decomposition
0.9270615455	discrete wavelet transform dwt
0.9270610802	key predistribution
0.9270456057	protein folding
0.9270422285	brushless dc
0.9270153409	constraint satisfaction problem
0.9269928105	singular perturbation
0.9269385655	electronic health records
0.9269186600	electroencephalographic eeg
0.9269157067	information retrieval ir
0.9268974617	bregman divergences
0.9268864676	abelian groups
0.9268546904	spiking neural network
0.9267807284	hand gestures
0.9267645711	magnetic resonance
0.9267639875	personality traits
0.9267555956	multiple description coding mdc
0.9267209327	change detection
0.9266636781	private key
0.9266575576	nucleic acids
0.9266534207	smart phones
0.9266523910	knapsack problem
0.9266336347	shallow water
0.9266206284	social science
0.9266200783	broadband access
0.9266128684	electronic voting
0.9265994620	web search
0.9265225395	piecewise smooth
0.9265217945	biped robot
0.9264892454	turing machines
0.9264855260	chronic disease
0.9264063370	business process
0.9263940071	singularly perturbed
0.9263936278	virtual machine vm
0.9263842585	ring oscillators
0.9263761217	metabolic pathways
0.9263114226	sea surface temperature
0.9262738845	noise reduction
0.9262570269	carbon dioxide
0.9262484289	scalar multiplication
0.9262283444	molecular docking
0.9262087304	multipath routing
0.9261935934	gas turbine
0.9261699386	fuzzy logic controller
0.9261588576	polarimetric sar
0.9261423162	secondary users sus
0.9261359655	computed tomography
0.9261210830	european union
0.9260106937	random walks
0.9260036754	term rewriting
0.9259865480	minimally invasive surgery
0.9259744538	code generation
0.9259596057	perfect matchings
0.9259490740	zipfs law
0.9259486241	data mining
0.9259281302	interferometric sar
0.9259057813	lyapunov functions
0.9259013623	quality assessment
0.9258822502	suffix array
0.9258765238	camera calibration
0.9258082336	embedded systems
0.9257932129	membership function
0.9257904853	news articles
0.9257898375	unequal error protection
0.9257793350	mobile robots
0.9257792294	volume rendering
0.9257685802	hearing impaired
0.9257682013	scatter search
0.9257243216	unstructured p2p
0.9257093000	fractional fourier transform
0.9256933787	spam filtering
0.9256724428	robot manipulator
0.9256711043	theorem prover
0.9256635687	antenna selection
0.9256569472	support vector machine svm
0.9256266445	access points aps
0.9256103986	artificial neural network ann
0.9256014965	motor imagery
0.9255833784	speech enhancement
0.9255320672	hop count
0.9255233446	fluorescence microscopy
0.9255228738	lot sizing
0.9255216961	gibbs sampler
0.9255175340	discrete fourier transform
0.9255026155	key agreement
0.9254753442	queue length
0.9254651097	electric power
0.9254383550	motion capture
0.9254122656	diabetic retinopathy
0.9254021220	vector quantization vq
0.9253726346	orthogonal polynomials
0.9253348401	compressive sensing cs
0.9253343665	capacitated vehicle routing
0.9252344081	hidden markov model
0.9252141015	evolutionary algorithms eas
0.9251894683	xml schema
0.9251613488	point cloud
0.9251306965	belief revision
0.9250993755	constant modulus
0.9250470250	speaker verification
0.9250171081	duty cycle
0.9250098891	unequal error protection uep
0.9249888668	public sector
0.9249572013	facial expression
0.9249556022	visual attention
0.9248660456	association rule mining
0.9248613236	contingency tables
0.9248223923	vehicle routing problem
0.9248075487	grid middleware
0.9247971079	access point ap
0.9247733162	water quality
0.9246664650	south african
0.9246534649	density estimation
0.9246501977	temporal logic
0.9246270854	impulse radio
0.9246222151	wireless communications
0.9245972214	multicommodity flow
0.9245948523	mild cognitive impairment
0.9245760682	biologically inspired
0.9245619229	knowledge representation
0.9245592659	switched capacitor
0.9245108209	resource discovery
0.9245041479	artificial intelligence
0.9244667396	spectral unmixing
0.9244663607	intellectual capital
0.9244629327	mobile ad hoc network
0.9244348772	decision tree induction
0.9244122699	bulletin board
0.9244061803	software development
0.9243790704	upper limb
0.9243733185	authoring tool
0.9243074226	radial basis functions
0.9242980577	access control policies
0.9242607683	seamless mobility
0.9241873426	hard disk drive
0.9241739978	wireless mesh networks wmns
0.9241720075	medium access control mac
0.9241270592	primary users pus
0.9241267533	trusted computing
0.9241103243	optical burst switching obs
0.9241032316	recommender systems
0.9240524654	line segment
0.9240453015	binding affinities
0.9240343963	sheet metal
0.9240211216	supply chain
0.9239933212	intermittently connected
0.9239836200	ldpc decoders
0.9239826802	eye gaze
0.9239786830	cellular automata ca
0.9239694497	massively multiplayer online games
0.9239400701	open loop
0.9239313977	customer loyalty
0.9239096312	gabor filter
0.9239050782	fourier transforms
0.9239000793	suffix arrays
0.9238871824	superposition coding
0.9238475873	multimedia streaming
0.9238279546	ddos attacks
0.9237912126	flow cytometry
0.9237774865	middle school
0.9237620410	unsupervised learning
0.9237473693	stock price
0.9237226665	synthetic aperture radar sar
0.9237213439	musical instruments
0.9237150367	ordered weighted averaging
0.9236884701	metropolitan area
0.9236558168	landsat tm
0.9236462368	moving object
0.9236428970	cooperative communications
0.9236019071	region growing
0.9235994365	variational inequality
0.9235881037	constraint satisfaction problems
0.9234929683	test generation
0.9234711328	clock synchronization
0.9234706494	transcription factors
0.9234640369	trajectory tracking
0.9234529523	task allocation
0.9234311162	latent dirichlet allocation lda
0.9234286991	similarity search
0.9234156728	variational bayes
0.9234155212	random projections
0.9234047846	euclidean distance
0.9233741483	rule induction
0.9233739079	wind turbines
0.9233631687	coarse grain
0.9233313434	particle swarm optimizer
0.9232979054	master slave
0.9232642604	wireless sensor networks wsn
0.9232617750	wheeled mobile robots
0.9232408283	hand gesture
0.9232217523	networked control systems
0.9231966387	principal component analysis
0.9231930544	symmetry breaking
0.9231848076	replica placement
0.9231792812	gaussian mixture models
0.9231540071	error resilience
0.9231409550	quantifier elimination
0.9231199133	cluster head
0.9230942879	motion planning
0.9230873776	optic disc
0.9230588312	uhf rfid
0.9230582760	air conditioning
0.9230439635	multimedia content
0.9230311024	stock prices
0.9230232360	sugeno integral
0.9229926565	wireless sensor network
0.9229890171	sustainable development
0.9229738277	principal component analysis pca
0.9229714488	web search engines
0.9229656819	finite difference
0.9229617586	multiuser mimo
0.9229327387	opportunistic scheduling
0.9229101734	media streaming
0.9228805956	xml schemas
0.9228630715	myocardial infarction
0.9228576117	service oriented
0.9228520864	kolmogorov complexity
0.9228441390	packet transmission
0.9227373160	gradient descent
0.9227079740	global warming
0.9227037638	smart phone
0.9226794236	minimally invasive
0.9226725685	unmanned aerial vehicles uavs
0.9226578505	needle insertion
0.9225968871	block diagonalization
0.9225968433	public administration
0.9225659188	class imbalance
0.9225403102	low latency
0.9225318297	papr reduction
0.9224853258	throughput maximization
0.9224671836	sensor networks
0.9224621985	urban areas
0.9224322364	liquid crystal
0.9223762496	canonical form
0.9223585057	frequent itemset mining
0.9223507981	intel xeon
0.9223367659	finite element fe
0.9223355114	visual hull
0.9222653367	character recognition
0.9222455385	cell cycle
0.9222365850	conservation laws
0.9222340126	infectious disease
0.9222330734	knowledge acquisition
0.9222163579	eye tracking
0.9222049818	data fusion
0.9221882447	query processing
0.9221717303	theorem proving
0.9221565947	natural language processing
0.9221184803	incentive compatible
0.9220658024	audio watermarking
0.9220363173	upper body
0.9220048798	reaction diffusion
0.9220018204	social sciences
0.9219988044	flowshop scheduling
0.9219516956	scalable video coding
0.9219411295	gamma distribution
0.9219395674	choquet integral
0.9219018267	nonexpansive mappings
0.9218556219	heat equation
0.9218553911	log files
0.9218458328	intuitionistic fuzzy
0.9218236856	reproducing kernel hilbert space
0.9218105492	nanoscale cmos
0.9217887549	bin packing
0.9217552390	text classification
0.9217480656	limit cycle
0.9217465402	transactional memory
0.9217287191	traffic flow
0.9216987653	head pose
0.9216929150	codon usage
0.9216874246	robotic arm
0.9216635913	nonnegative matrix factorization nmf
0.9216278243	public key cryptography
0.9216195859	latin square
0.9215906227	moving average
0.9215623539	blind equalization
0.9215161799	graph cut
0.9215040604	proportional fair
0.9214649893	rigid body
0.9214640428	scalable video coding svc
0.9214561567	dna microarray
0.9214170048	consistency checking
0.9213948040	register file
0.9213846278	ptz camera
0.9213701139	clock gating
0.9213658131	question answering qa
0.9213430460	acoustic echo cancellation
0.9213422105	convex polygon
0.9213163651	radiation therapy
0.9213123275	context aware
0.9211967731	nonnegative matrix factorization
0.9211889037	radiative transfer
0.9211805645	social network
0.9211536516	facial expression recognition
0.9211514905	prisoners dilemma
0.9210924220	mr images
0.9210377690	single carrier
0.9210228558	hidden markov models hmms
0.9210045022	half duplex
0.9209994820	key escrow
0.9209824753	support vector regression svr
0.9209687214	flash memories
0.9209634276	maximum likelihood estimator
0.9209591249	knowledge sharing
0.9209084575	discrete fourier transform dft
0.9208957759	discrete cosine transform
0.9208569603	feedforward neural networks
0.9208519090	heat transfer
0.9208509226	wireless sensor network wsn
0.9208458111	wdm networks
0.9208059848	end user
0.9207899545	mobile devices
0.9207582183	wireless sensor networks
0.9207481637	laplace transform
0.9207234683	service delivery
0.9207066343	traveling salesman problem
0.9206979408	ordinary differential equations
0.9206277590	white gaussian noise
0.9206243685	proof assistant
0.9205652504	low complexity
0.9205439720	markup language
0.9205365084	dynamic programming dp
0.9205340899	model predictive control mpc
0.9205140824	class separability
0.9205007000	ordinary differential equation
0.9204958336	resource sharing
0.9204955065	evolvable hardware
0.9204918429	cluster validity
0.9204137898	aspect oriented programming
0.9203971230	speech synthesis
0.9203829160	boolean functions
0.9203570396	fair queuing
0.9202856061	suffix tree
0.9202764942	digital video broadcasting
0.9202690864	customer churn
0.9202553417	minimum weight
0.9202520043	mental workload
0.9201632975	fragile watermarking
0.9201542266	social networks
0.9201303592	musical instrument
0.9201245359	structured light
0.9201241764	error detection
0.9201111576	maximum margin
0.9200853294	session initiation protocol sip
0.9200639238	secondary school
0.9200470536	credit card
0.9200426737	specification language
0.9199974546	authenticated key exchange
0.9199892495	sequence alignment
0.9199763502	inductive logic programming
0.9199692768	crossover operator
0.9199467934	natural language processing nlp
0.9199362773	parasitic capacitance
0.9199335642	heat conduction
0.9199040295	indoor positioning
0.9198499651	american options
0.9198410500	linguistically motivated
0.9198328929	intelligent transportation systems
0.9198189122	deterministic finite automata
0.9197917126	video conferencing
0.9197747072	elliptic curve cryptography ecc
0.9197661058	macroblock mb
0.9197609920	river basin
0.9197357355	fast marching
0.9197325501	mobile ad hoc networks manets
0.9197216400	identity management
0.9196885780	video games
0.9196836461	transmit antenna
0.9196596058	quantum dots
0.9196458151	steiner tree
0.9195479755	latin america
0.9195455297	energy efficient
0.9194874860	usability evaluation
0.9194218661	product line
0.9193998376	cochannel interference
0.9193966184	shannon entropy
0.9193940592	frequency domain equalization
0.9193731634	object detection
0.9193417014	neighbor discovery
0.9193310532	java virtual machine
0.9193181298	heart disease
0.9193018062	law enforcement
0.9192719789	support vector regression
0.9192575677	exponential family
0.9192569822	service provision
0.9192405425	assisted living
0.9192137078	data streams
0.9192054087	named entity recognition
0.9192013733	computational linguistics
0.9191455248	tensor product
0.9191376798	electromagnetic field
0.9191259938	hyperspectral images
0.9191144797	multiple description coding
0.9191059515	mac protocols
0.9190550380	giant component
0.9190371648	evoked potentials
0.9189805977	ultra low power
0.9189575195	residuated lattices
0.9189568654	enterprise resource planning erp
0.9189520366	leaf area index
0.9188988674	cryptographic protocols
0.9188677123	mobile commerce
0.9188486420	particle swarm optimization
0.9188483099	reversible data hiding
0.9188478357	life cycle
0.9188339273	relational database
0.9188331965	service oriented architectures
0.9188329093	rough terrain
0.9188273045	ring oscillator
0.9188004481	atmospheric correction
0.9187367138	object oriented
0.9187151699	rfid tag
0.9186997687	optical fiber
0.9186934302	energy harvesting
0.9186857440	ct images
0.9186857378	fuzzy artmap
0.9186844967	web service compositions
0.9186743209	interference suppression
0.9185976223	cooperative spectrum sensing
0.9185907545	power gating
0.9185877470	guard interval
0.9185583907	collaborative learning
0.9185526594	multiuser detection
0.9185385328	load balance
0.9185128893	context sensitive
0.9185003986	facial animation
0.9184891530	molecular dynamics simulations
0.9184862842	semantic role labeling
0.9184778880	mental health
0.9184626682	gibbs sampling
0.9184473134	multimodal biometric
0.9184390422	lossless compression
0.9184100741	brain mri
0.9183971083	canonical correlation analysis
0.9183659360	piecewise constant
0.9183599046	mimo channels
0.9183524493	impulse noise
0.9183389803	wide band
0.9183064724	reverse logistics
0.9182710689	doa estimation
0.9182692601	test case generation
0.9182455513	magnetic resonance imaging
0.9182226951	tacit knowledge
0.9182146022	clinical decision support
0.9181943854	transmit antenna selection
0.9181542649	eye movement
0.9181474151	business processes
0.9181370665	ultra wideband
0.9181174510	threshold voltage
0.9181044062	sequential pattern mining
0.9180916309	neural gas
0.9180808634	equivalence relations
0.9180719539	ramsey numbers
0.9180550052	dirty paper coding
0.9180231813	lyapunov stability
0.9180167817	source code
0.9180124972	color histogram
0.9179902582	permanent magnet
0.9179747171	long range
0.9179610645	benchmark suite
0.9179477810	relative entropy
0.9179438191	oil spill
0.9179403055	amplitude modulation
0.9179271509	brownian motion
0.9179238699	ordinary differential equations odes
0.9178835878	document retrieval
0.9178640728	blog posts
0.9178640222	building blocks
0.9178215988	hopfield neural networks
0.9178202483	regular languages
0.9178029138	wiretap channel
0.9177908741	connected dominating set
0.9177712402	scripting language
0.9177656457	rumor spreading
0.9177136086	white matter
0.9177112413	magnetic resonance imaging mri
0.9176791932	heuristic search
0.9176761223	support vector machines svms
0.9176422018	fixed point
0.9176361722	sigma delta
0.9176207437	markov chain monte carlo
0.9176020150	maximum likelihood ml
0.9175454558	foreign language
0.9174895299	software product lines
0.9174762555	haptic feedback
0.9174719049	closed loop
0.9174589586	fast fourier transform fft
0.9174364110	graphics processing unit gpu
0.9174257189	link layer
0.9174146008	overlay multicast
0.9174030276	south korea
0.9173975478	mobile station ms
0.9173694043	earth science
0.9173299874	turbo decoding
0.9173213970	protein structure prediction
0.9173164015	gene expression programming
0.9172846747	hearing aid
0.9172830028	discrete event simulation
0.9172190607	inertial sensors
0.9171956543	receptive field
0.9171780370	induction motor drive
0.9171707546	home appliances
0.9171702740	partial differential equation
0.9171613265	low snr
0.9171436985	doppler shift
0.9171269458	hardware accelerators
0.9170928550	spatially varying
0.9170355814	blue genep
0.9170238579	fitness landscape
0.9170136654	density functional theory
0.9170067917	hyperspectral image
0.9169530678	image denoising
0.9169145265	sponsored search
0.9169142106	floating gate
0.9168742378	dead reckoning
0.9168405505	active appearance model
0.9168399495	sleep apnea
0.9167902905	sea ice
0.9167776069	hit rate
0.9167445962	formal semantics
0.9167430300	impulsive noise
0.9167351350	mobility management
0.9167242862	vector field
0.9167200461	supplier selection
0.9167197268	nearest neighbour
0.9167174778	virtual communities
0.9167137021	intra prediction
0.9167020883	social welfare
0.9166765083	variable length
0.9166715765	radio access technologies
0.9166537469	text entry
0.9166355210	global optimization
0.9165849685	radial basis function neural network
0.9165522342	feedforward neural network
0.9165087496	texture synthesis
0.9164366515	finite state machines
0.9163583454	saddle point
0.9163464158	order statistics
0.9163417985	motion compensation
0.9163215433	sleep mode
0.9163141868	power law
0.9163120126	service oriented architecture soa
0.9163054184	hidden markov models
0.9162882359	fiber bundles
0.9162866255	service differentiation
0.9162747181	skin color
0.9162558297	latent semantic indexing
0.9162530856	virtual environment
0.9162182701	signature scheme
0.9161942541	covariance matrix
0.9161137478	delay tolerant
0.9160778427	scientific workflow
0.9160548481	svm classifier
0.9160463191	multiview video
0.9160429689	partial differential equations
0.9160046190	super resolution
0.9160024309	pareto optimal
0.9159861596	multiview video coding
0.9159824141	undirected graphs
0.9159813043	chordal graphs
0.9159810128	ip multimedia subsystem ims
0.9159648255	event driven
0.9159534969	data collection
0.9159504115	soft decision
0.9159416170	decision making
0.9159206365	basal ganglia
0.9159162265	extensible markup language xml
0.9159134473	huffman coding
0.9159063782	critical success factors
0.9159046476	digital rights management
0.9158452036	intellectual property ip
0.9158254536	hyperspectral remote sensing
0.9158253034	unmanned aerial vehicle uav
0.9158063935	open source software oss
0.9158062711	tight bounds
0.9158049084	endmember extraction
0.9157949773	answer set programming
0.9157612134	synaptic plasticity
0.9157377393	intuitionistic logic
0.9156915051	pipelined adc
0.9156828439	high school students
0.9156775425	combinatorial optimization
0.9156592111	haptic interface
0.9156555858	ambient assisted living
0.9156522308	motion compensated
0.9156340484	wireless networks
0.9156311345	interconnection networks
0.9156273160	semidefinite relaxation
0.9156204136	p2p file sharing
0.9156091708	formal methods
0.9155694751	soft tissue
0.9155622035	clinical trial
0.9155363233	gene regulation
0.9155055247	sar images
0.9155051149	ad converter
0.9154675621	concept lattices
0.9154559282	discrete cosine transform dct
0.9154062936	design space exploration
0.9153719564	electron beam
0.9153691409	gene ontology
0.9153588675	owa operator
0.9153226911	wireless channels
0.9153112921	digital television
0.9153106651	mobile ipv6
0.9153043501	operational semantics
0.9153004846	mesh routers
0.9152929380	technological innovation
0.9152607196	division multiplexing
0.9152302766	disk drives
0.9152211660	high availability
0.9151891421	intuitionistic fuzzy sets
0.9151834218	eddy current
0.9151828468	mixed integer
0.9151611096	privacy preservation
0.9151580903	sphere decoding
0.9151409902	causal relationships
0.9150668502	disturbance observer
0.9150667562	eeg signals
0.9150545981	globus toolkit
0.9149997270	waiting times
0.9149916772	credit risk
0.9149271748	shear stress
0.9148558774	optical character recognition
0.9148536055	discrete math
0.9148354927	proxy signature
0.9147802931	home care
0.9147770537	data warehouse
0.9147594306	access points
0.9147494674	range queries
0.9146736874	received signal strength
0.9146462406	exception handling
0.9146344985	cayley graphs
0.9145943628	skin conductance
0.9145874072	coreference resolution
0.9145842878	rate allocation
0.9145655066	ddos attack
0.9145275152	government agencies
0.9145232168	maximum weight
0.9145210506	keyphrase extraction
0.9144833962	optical coherence tomography
0.9144470713	primary school
0.9144435460	shift keying
0.9144312836	l2 cache
0.9143791604	rbf neural network
0.9143353949	extended kalman filter
0.9143301273	nucleic acid
0.9143003664	owl ontology
0.9142856517	crisis management
0.9142752176	iterated prisoners dilemma
0.9142501648	fraud detection
0.9142372856	transmit antennas
0.9142330855	dagstuhl seminar
0.9141998714	intelligent tutoring systems
0.9141977362	positive definite
0.9141286356	primary care
0.9141229205	speech recognizer
0.9140694790	contention window
0.9140522399	signed digit
0.9140442954	magnetic resonance images
0.9140202257	social network analysis
0.9140192091	inventory holding
0.9139039075	underwater vehicles
0.9138558366	channel state information csi
0.9138416425	stackelberg game
0.9138339703	offshore outsourcing
0.9138224907	extremum seeking
0.9138189248	stochastic volatility
0.9138137404	packet error rate
0.9137987127	south africa
0.9137646989	nvidia cuda
0.9137207576	sliding windows
0.9136837779	surveillance videos
0.9135957663	register files
0.9135670344	limit cycles
0.9135259032	spiking neural networks
0.9135142443	pedestrian detection
0.9134831895	principal components
0.9134165848	frequency synthesizer
0.9134158792	key agreement protocol
0.9134057697	wavelength division multiplexing wdm
0.9133680663	attribute reduction
0.9133616243	strongly connected
0.9133505611	fault localization
0.9133268304	amino acids
0.9133235852	patient safety
0.9133216533	semantic web technologies
0.9132985642	electronic medical records
0.9132584502	dct coefficients
0.9132156093	bipartite graphs
0.9131960259	knowledge transfer
0.9131686690	microphone arrays
0.9131602062	tactile feedback
0.9131517815	energy dissipation
0.9131402328	atomic force microscopy
0.9131121353	semantic interoperability
0.9130958971	aspect oriented
0.9130463248	biometric authentication
0.9130405437	video game
0.9129890143	confidence intervals
0.9129523963	fuzzy sets
0.9129082931	key distribution
0.9128905856	snomed ct
0.9128669610	symbol error probability
0.9128575049	motif discovery
0.9128430549	java programs
0.9128351005	driver assistance
0.9127792213	locally linear embedding
0.9127683790	unit disk graphs
0.9127285819	gene regulatory networks
0.9127111154	sphere decoder
0.9126969897	temporal logic ltl
0.9126879550	cone beam
0.9126773354	public transportation
0.9126631209	valid inequalities
0.9126615387	preemptive scheduling
0.9126343346	overlay networks
0.9126213465	max min
0.9125883603	flow shop
0.9125639646	ultra wideband uwb
0.9125410169	loop unrolling
0.9125090808	parallel manipulator
0.9124965063	web mining
0.9124945389	wavelet coefficients
0.9124938978	vegetation indices
0.9124831210	frequency response
0.9124821498	binding sites
0.9124541369	hybrid arq
0.9124293306	congestion games
0.9123717185	arabic handwriting
0.9123080302	wiener filter
0.9123008285	delta sigma
0.9122601386	description language
0.9122484952	knowledge management
0.9122408856	vehicular ad hoc network
0.9122208181	homeland security
0.9122077647	location aware
0.9121961023	matching pursuit
0.9121936324	fine grain
0.9121743513	high performance computing hpc
0.9120880787	printed circuit board
0.9119921390	finite state machine
0.9119328071	channel estimation errors
0.9119119503	linear discriminant analysis lda
0.9118721143	preconditioned conjugate gradient
0.9118478787	false alarm rate
0.9118237399	programmable logic
0.9118178045	frame rate
0.9117895209	fixed point theorem
0.9117692825	radio frequency identification rfid
0.9117663352	quantum cryptography
0.9117568627	transcription factor
0.9117329330	doubly fed induction
0.9117027413	ldpc code
0.9116840059	visual cortex
0.9116802018	error probability
0.9116712230	depth map
0.9116634976	gaussian mixtures
0.9116597166	finite state automata
0.9116455331	linear discriminant analysis
0.9116313186	wireless mesh networks
0.9115974212	prefrontal cortex
0.9115932754	appl math
0.9115475559	artificial neural networks anns
0.9115408239	factors affecting
0.9115270986	content delivery
0.9115004783	web service discovery
0.9114905453	op amp
0.9114473390	infrared ir
0.9114295251	electronic health record
0.9114199247	haptic rendering
0.9114180547	saliency map
0.9114136963	artificial immune systems
0.9114035290	channel impulse response
0.9113915768	label propagation
0.9113745942	wind speed
0.9113738122	young children
0.9113604703	electromagnetic em
0.9113477949	forward error correction fec
0.9113435869	scientific workflows
0.9113429108	mobile ad hoc network manet
0.9112486809	pattern classification
0.9112075750	hot topics
0.9111870163	moving target
0.9111633586	lifelong learning
0.9111088037	software transactional memory
0.9111019812	service level agreements
0.9110513027	blended learning
0.9110488382	conditional random fields
0.9110440351	shift invariant
0.9110402168	frequency selective
0.9109990474	directed graphs
0.9109973708	agile software development
0.9109508758	video clips
0.9108973970	opportunistic relaying
0.9108931311	reed solomon codes
0.9108920073	hierarchical clustering
0.9108857227	web applications
0.9108707151	interactive storytelling
0.9108679709	phd thesis
0.9108309439	conditional random fields crfs
0.9107987982	user centric
0.9107901260	intelligent agents
0.9107884795	multicast routing
0.9107807828	empirical mode decomposition emd
0.9107777358	solitary wave
0.9107646659	bipedal walking
0.9107500808	fir filter
0.9107458279	lambda calculus
0.9107456737	state estimation
0.9107350657	clone detection
0.9106744829	intrinsic mode functions
0.9106637132	chinese characters
0.9106208312	support vector machine
0.9105437326	stopping criterion
0.9105252861	head mounted
0.9105118147	potential field
0.9104996193	capacity planning
0.9104712879	bit error rate
0.9104441039	maximal cliques
0.9104318932	achievable rates
0.9103211478	hebbian learning
0.9102804698	nonparametric regression
0.9102619487	goal oriented
0.9102558419	cooperative relay
0.9102552370	early termination
0.9102210081	search engines
0.9102068071	color constancy
0.9101774286	amino acid
0.9101325382	link quality
0.9100620310	functional dependencies
0.9100397424	harmony search
0.9099973809	error correcting
0.9099959247	subdivision surfaces
0.9099911569	pulse width
0.9099892567	business process management bpm
0.9099525462	web search engine
0.9099506177	orthogonal matching pursuit
0.9099311659	data envelopment analysis
0.9099302278	identity based encryption
0.9099267169	battery lifetime
0.9099253118	problem solving
0.9099070229	noise suppression
0.9098908624	scanning electron microscope
0.9098907230	shadow fading
0.9098814153	priority queue
0.9098201803	sphere packing
0.9098201715	matched filter
0.9098092458	portfolio optimization
0.9097774461	echo cancellation
0.9097491010	feed forward
0.9097323664	markov decision processes
0.9097320433	homomorphic encryption
0.9097051689	laser range
0.9096833412	compressive strength
0.9096782977	scratch pad
0.9096748173	subset selection
0.9096715538	document collections
0.9096713900	inertial navigation
0.9096245321	vertex coloring
0.9096037815	comput sci
0.9095928277	parallel manipulators
0.9095743378	solid state
0.9095485805	sensor network
0.9095379931	human brain
0.9095236055	variable block size
0.9094839454	dynamic voltage scaling dvs
0.9094620346	coupled oscillators
0.9094298195	high resolution
0.9093960619	urban area
0.9093851135	traffic engineering
0.9093808141	disturbance attenuation
0.9093780970	finite field
0.9093625687	satisfiability modulo theories
0.9093552765	reversible logic
0.9093185340	ant colony optimisation
0.9093092616	relay node
0.9092270067	black box
0.9092254031	chosen ciphertext
0.9092167704	lyapunov function
0.9091952583	rfid readers
0.9091672307	ambient intelligence ami
0.9091215632	formal specification
0.9091132617	model predictive control
0.9091102770	shape descriptor
0.9091097866	phase unwrapping
0.9090995874	cerebral blood flow
0.9090959147	rayleigh fading channel
0.9090885946	image enhancement
0.9090781576	high dynamic range hdr
0.9089840010	agglomerative clustering
0.9089726189	operational amplifier
0.9089670022	forward error correction
0.9089588209	gray matter
0.9089505574	straight line
0.9089352816	activity recognition
0.9089100519	frequency band
0.9088989317	synthetic aperture radar
0.9088936468	integral equations
0.9088759580	distributed video coding dvc
0.9088511321	permanent magnet synchronous motor
0.9088475370	min max
0.9088305189	electronic medical record
0.9088261381	directed acyclic graphs
0.9088018075	spontaneous speech
0.9087484555	radio access
0.9087073446	reconfigurable computing
0.9086771240	secure multiparty computation
0.9086376799	hamiltonian cycles
0.9086321686	public key cryptosystem
0.9086255703	truth values
0.9085596365	software defined radio
0.9085430064	route discovery
0.9085300730	human action recognition
0.9085244822	semi supervised
0.9084805399	digital signal processor
0.9084608475	case based reasoning cbr
0.9084343450	statistical machine translation smt
0.9084301820	handwritten digit
0.9083724613	local binary pattern
0.9083600906	hypothesis testing
0.9083546583	dynamic range
0.9083510569	user preference
0.9083392225	markov random field mrf
0.9082763625	traditional chinese medicine
0.9082749855	deblocking filter
0.9082667669	user satisfaction
0.9082310033	wireless mesh network wmn
0.9082223825	mixed integer programming
0.9081958270	gaussian process
0.9081852328	false acceptance
0.9081672794	collusion attacks
0.9081658099	pan tilt
0.9081563934	channel access
0.9081193255	cognitive radio networks
0.9081051667	serially concatenated
0.9081023610	project management
0.9081003131	prior art
0.9080765819	microphone array
0.9080746950	public key encryption
0.9080655116	qos guarantees
0.9080458407	alos palsar
0.9079383709	awgn channel
0.9079037907	web sites
0.9078940005	p2p streaming
0.9078587554	rare event
0.9078416791	dual hop
0.9078398643	object categorization
0.9077763437	energy efficiency
0.9077487485	cutting plane
0.9077369111	random number generator
0.9077288991	p2p live streaming
0.9076917619	cardiovascular disease
0.9076774082	nakagami fading
0.9076768209	pid control
0.9076742699	fault coverage
0.9076572174	radial basis function rbf
0.9075984687	information exchange
0.9075243515	mobile ad hoc networks manet
0.9075053595	transactional memory tm
0.9075045020	phase noise
0.9074796642	earth movers distance
0.9073870645	semantic annotation
0.9073863999	peer review
0.9073767547	pulse shaping
0.9073446558	electromagnetic waves
0.9073274527	turbo decoder
0.9073266377	multilayer perceptron mlp
0.9073261345	opportunistic spectrum access
0.9073253349	air quality
0.9072993685	brain activity
0.9072977600	cepstral coefficients
0.9072744365	asymptotic expansions
0.9072585647	quantum chemistry
0.9072342038	boundary layer
0.9072195363	spatio temporal
0.9072159302	error rate
0.9071866632	graph theory
0.9071805349	handheld devices
0.9071779026	graphics processing units
0.9071574344	sensor fusion
0.9071446068	support vector machines
0.9071312878	attribute grammars
0.9071281966	imaging spectrometer
0.9070769086	finite element method fem
0.9070648298	pi calculus
0.9070442200	energy consumption
0.9070360603	shopping mall
0.9070241600	low power
0.9070063420	novelty detection
0.9070030306	text summarization
0.9069958886	sample size
0.9069930250	stock returns
0.9069890464	liquid crystal display
0.9069867358	facial expressions
0.9069492386	cramer rao bound
0.9069485451	geographic information systems gis
0.9069382298	research agenda
0.9069305573	partial order
0.9069109255	distributed computing
0.9068805953	referring expressions
0.9068771474	morphologically rich
0.9068765542	total harmonic distortion
0.9068600010	lie algebra
0.9068448720	spectral efficiency
0.9068081708	query language
0.9067857811	photovoltaic pv
0.9067763073	transition probabilities
0.9067755301	medical images
0.9067730745	lower bounds
0.9067525895	ber performance
0.9067427464	multi agent
0.9067380652	interconnection network
0.9067376439	hadamard matrices
0.9067311036	distributed hash tables
0.9067292832	watermark embedding
0.9067291738	fractional order
0.9067276463	vertex set
0.9067262325	delay spread
0.9067097739	forward backward
0.9067054030	orthogonal frequency division multiplexing ofdm
0.9066844962	ethical issues
0.9066488947	power management
0.9066461770	software product line
0.9065933728	bayesian belief
0.9065878883	contention resolution
0.9065846950	adverse drug
0.9065800717	mass customization
0.9065585423	solar radiation
0.9065513523	positron emission tomography pet
0.9065334325	rate distortion
0.9065045118	markov modulated
0.9064605194	frequent pattern mining
0.9064133693	heterogeneous multiprocessor
0.9064109465	kdd cup
0.9063901243	round trip
0.9063678965	cerebral cortex
0.9062707281	broadcast channels
0.9062543796	image sequences
0.9061413670	division multiple access
0.9061105576	job submission
0.9061020896	data envelopment analysis dea
0.9060999461	message exchange
0.9060998293	high angular resolution diffusion
0.9060988370	ofdma uplink
0.9060767239	mobile ip
0.9060757101	convection diffusion
0.9060600155	collision warning
0.9060558102	run length
0.9060456964	tabu search ts
0.9060332905	impedance tomography
0.9059682876	chi square
0.9059321457	blocking probability
0.9059311321	service oriented architecture
0.9058801073	smt solver
0.9058774603	embedded software
0.9058748836	situational awareness
0.9058579761	coarse grained
0.9058571486	h264 video
0.9058066579	bit allocation
0.9057842417	writer identification
0.9057817652	computational fluid dynamics cfd
0.9057672640	agglomerative hierarchical
0.9057624007	overlay network
0.9057455619	gene selection
0.9057430367	mimo channel
0.9056644179	affine invariant
0.9056587910	schema matching
0.9056423291	graph isomorphism
0.9056267727	user interaction
0.9056243237	seamless handover
0.9056232158	subcellular localization
0.9055887236	information sharing
0.9055715548	markov random fields
0.9055647877	header compression
0.9055370299	parse trees
0.9055344270	hong kong
0.9055327521	leakage current
0.9055273659	hidden markov models hmm
0.9055167512	trellis coded modulation
0.9054821644	ds cdma
0.9054732207	log likelihood
0.9054722290	tcp throughput
0.9054675949	speech intelligibility
0.9054463092	vehicular networks
0.9054422403	static output feedback
0.9054179293	client server
0.9054095171	biomedical literature
0.9053918193	action recognition
0.9053528173	neuro fuzzy
0.9053353987	chuas circuit
0.9053299761	p2p vod
0.9053126048	lyapunov exponent
0.9053125943	variable neighborhood search
0.9053037605	binary symmetric channel
0.9052955311	drug resistance
0.9052356007	logic programs
0.9052265133	error correcting codes
0.9052107396	decision feedback equalizer
0.9052077764	randomly deployed
0.9052064364	grobner bases
0.9052054525	service level agreements slas
0.9052054080	rule extraction
0.9051839492	quantum wells
0.9051232238	monte carlo
0.9051102844	subgroup discovery
0.9050949966	fuzzy neural network
0.9050931161	electronic nose
0.9050889197	high tech
0.9050819217	autonomous mobile robots
0.9050709035	stair climbing
0.9050552374	conformance testing
0.9050541700	critical infrastructures
0.9050484571	tree automata
0.9050178949	web pages
0.9050166664	ip multicast
0.9050076862	anaphora resolution
0.9050010006	limited feedback
0.9049898605	stable marriage
0.9049661090	gaussian mixture model gmm
0.9049572745	digital forensics
0.9049503495	policy iteration
0.9049459561	probabilistic latent semantic analysis
0.9049312949	mobile sink
0.9049176465	evolutionary algorithm
0.9049042125	triangular norms
0.9048591025	code division multiple access cdma
0.9047731372	relay channels
0.9047709855	global illumination
0.9047599911	doubly selective
0.9047508685	steady state
0.9047490647	qos aware
0.9047425647	ip networks
0.9047421718	vlsi circuits
0.9047277269	screen reader
0.9047178250	left hemisphere
0.9046970210	digital signal processor dsp
0.9046623809	machine translation mt
0.9046247816	stock trading
0.9045895285	turbo code
0.9045856313	median filter
0.9045856233	received signal strength rss
0.9045228859	volunteer computing
0.9045177839	electric vehicles
0.9045066533	random sampling
0.9044895654	hadamard transform
0.9044830932	variable selection
0.9044626098	discrete memoryless
0.9044152186	greens function
0.9044062251	spinal cord
0.9043774962	stem cells
0.9043717192	contextual advertising
0.9043655547	formal concept analysis
0.9043266867	symbol timing
0.9043253518	discrete event
0.9043148208	conditional random field
0.9042879261	markov random field
0.9042842604	bounded degree
0.9042834753	local binary patterns
0.9042378473	video quality
0.9042164663	finite state
0.9042011715	mobile tv
0.9041912183	code division multiple access
0.9041074386	trust management
0.9040880354	anterior cingulate
0.9040746304	wireless mesh network
0.9040034448	fisher discriminant analysis
0.9039848135	security vulnerabilities
0.9039605143	native speakers
0.9039522256	concurrency control
0.9039301837	group decision making
0.9039288470	interval valued
0.9039288406	path selection
0.9039157100	google maps
0.9039045202	public keys
0.9038693132	lie group
0.9038512762	moderate resolution imaging spectroradiometer modis
0.9038433685	undergraduate students
0.9038298296	multi party
0.9038281145	force field
0.9038218292	word recognition
0.9037985012	wireless relay networks
0.9037965109	unmanned aircraft
0.9037758141	fine tuning
0.9037711750	linear matrix inequality
0.9037659579	quadratic residue
0.9037364033	state space
0.9037261076	hill climbing
0.9037157636	sleep deprivation
0.9036668697	ofdm systems
0.9036536591	discussion forum
0.9036462654	interior point
0.9036428042	shape memory alloy
0.9036390826	listed companies
0.9036343748	record linkage
0.9036252249	packet loss
0.9036183972	false discovery rate
0.9036157161	ieee trans
0.9036140494	authenticated key agreement
0.9036063934	role based access control rbac
0.9035917572	online learning
0.9035518924	dominating sets
0.9035153847	ligand binding
0.9034918965	fisher information matrix
0.9034746021	remote control
0.9034077406	business process modeling
0.9033971959	wide area
0.9033867764	college students
0.9033546926	credit cards
0.9033526851	flapping wing
0.9033416129	predator prey
0.9033398584	discrete logarithm
0.9033320564	partial reconfiguration
0.9033239048	triangular meshes
0.9033217601	hard disk
0.9033136550	key frames
0.9033098175	chinese remainder theorem
0.9033016612	vector fields
0.9032927024	decision support systems
0.9032710715	independent component analysis
0.9032658743	cholesky factorization
0.9032368729	container terminals
0.9031488491	feedback control
0.9031436866	injection locked
0.9031306553	mesh refinement
0.9030577223	expectation maximization em
0.9030389802	carrier sense
0.9030189422	state transition
0.9029869675	information theoretic
0.9029860303	optical burst switching
0.9029594489	radio frequency rf
0.9029549896	h264avc video coding
0.9029282997	basis pursuit
0.9029108781	exponential backoff
0.9029093899	metal oxide
0.9028619565	mobile device
0.9028493196	mobile stations
0.9028453893	embodied conversational agents
0.9028442148	high speed
0.9028390429	multi objective
0.9028231225	high fidelity
0.9027966469	spectral clustering
0.9027658520	ultra wide band
0.9027567907	nios ii
0.9027473667	quality improvement
0.9027415784	free energy
0.9027298831	wavelength division multiplexing
0.9026651762	gene expression data
0.9026500836	block matching
0.9026476414	graph partitioning
0.9026256725	mobile agent
0.9026195366	distributed source coding
0.9026117001	soft errors
0.9025801430	nuclear power plant
0.9025501214	biomedical informatics
0.9025390106	smart spaces
0.9025316032	p2p network
0.9025269159	latent dirichlet allocation
0.9025083660	flexible manufacturing systems
0.9024945655	dc offset
0.9024645654	ws bpel
0.9024458937	service providers
0.9024428856	routing protocols
0.9024365537	color image
0.9024190346	graphical user interface gui
0.9024077989	secret sharing scheme
0.9023872162	patient record
0.9023843761	skyline queries
0.9023337853	ant colony algorithm
0.9023198285	line search
0.9023173192	quadrature amplitude modulation
0.9023130852	difference vegetation index
0.9022917646	uniform hypergraphs
0.9022811363	ka band
0.9022807995	separation logic
0.9022742651	gaussian distribution
0.9022529304	body biasing
0.9022503386	outer bounds
0.9022166631	game playing
0.9021994963	phase shift keying
0.9021190668	proxy mobile ipv6
0.9021188246	content based image retrieval cbir
0.9020943520	grey relational
0.9020756697	video retrieval
0.9020626641	mobile sinks
0.9020144785	internet banking
0.9020123263	multiuser ofdm
0.9020019824	ip traceback
0.9019802279	tcp flows
0.9019565936	bandwidth reservation
0.9019444454	sparse representation
0.9019434031	manifold learning
0.9019293168	schur complement
0.9018556815	immersive virtual environments
0.9018432678	small world
0.9018057361	assignment problem
0.9017874089	wireless access
0.9017785655	key management
0.9017756447	interference avoidance
0.9017706133	multi antenna
0.9017655718	finite element analysis
0.9017599001	h264 encoder
0.9017445108	latent semantic analysis
0.9017309903	uml diagrams
0.9017231105	chromatic number
0.9017114069	personalized recommendation
0.9016784778	intercarrier interference
0.9016782331	fourier descriptors
0.9016617277	register transfer level
0.9016447892	commercial banks
0.9016238167	transcription factor binding sites
0.9015067168	integrity constraints
0.9014972146	power control
0.9014748707	public libraries
0.9014744579	nsga ii
0.9014743020	signal transduction
0.9014646165	cramer rao bound crb
0.9014560663	wireless sensor nodes
0.9014371242	content distribution
0.9014355478	cache replacement
0.9014235860	upload bandwidth
0.9014159253	hybrid electric vehicle
0.9013953142	nintendo wii
0.9013866368	corporate governance
0.9013675327	magnetic resonance mr
0.9013458100	free riding
0.9013415302	decision fusion
0.9013371394	remote sensing images
0.9013276757	facility location problem
0.9013199347	graphics processing units gpus
0.9013172892	artificial bee colony
0.9012977717	business process management
0.9012725845	sine wave
0.9012543855	word spotting
0.9012465909	epistemic logic
0.9012432934	sensitivity analysis
0.9012330374	frequent patterns
0.9012003168	tone mapping
0.9011590195	moving objects
0.9011379931	ground truth
0.9011336774	transaction costs
0.9010990733	doubly selective channels
0.9010843871	carrier sense multiple access
0.9010800560	computational science
0.9010203140	raptor codes
0.9009853001	target detection
0.9009785244	dissimilarity measure
0.9009689891	parking lot
0.9009442116	virtual characters
0.9009439251	automatic repeat request arq
0.9009355837	palmprint recognition
0.9009258837	markov decision process
0.9008980097	scan chain
0.9008474141	compressive sampling
0.9008029141	short lived
0.9008022776	banach spaces
0.9007993577	multi agent systems mas
0.9007962206	graphical user interface
0.9007939986	heavy metals
0.9007890191	mixed signal
0.9007724427	genetic regulatory networks
0.9007505693	human factors
0.9007258376	poisson equation
0.9006978619	xpath queries
0.9006900807	riemannian metric
0.9006481704	computational grids
0.9005691021	concept lattice
0.9005678414	reproducing kernel hilbert
0.9005589395	unmanned aerial vehicle
0.9005494912	markov decision process mdp
0.9005207497	activity diagrams
0.9005156236	factor analysis
0.9004473271	multiagent systems
0.9004389226	wastewater treatment
0.9004038776	online shopping
0.9004026616	learning styles
0.9003957359	single trial
0.9003907049	frequency selective fading channels
0.9002762130	cluster heads
0.9002555056	kernel principal component analysis
0.9002250422	fuzzy clustering
0.9001619118	concurrent programs
0.9001432602	decision theoretic
0.9001418987	ultrasound images
0.9001387717	process algebra
0.9001312982	sentiment classification
0.9001191045	gaussian mixture model
0.9001168662	video compression
0.9001093231	arithmetic coding
0.9000485429	immune response
0.9000080883	stock markets
0.8999775532	gait recognition
0.8999738977	rfid technology
0.8999715628	answer set
0.8998949713	multiple access channel
0.8998913801	programming language
0.8998609055	evolutionary algorithm ea
0.8998606090	structural similarity
0.8998109579	graph theoretic
0.8998023162	directed acyclic graph dag
0.8997907190	atmospheric turbulence
0.8997756461	cast shadows
0.8997415205	steiner trees
0.8996776393	arithmetic circuits
0.8996548242	semi automatic
0.8996346247	computational fluid dynamics
0.8996156148	character animation
0.8996025157	unit disk graph
0.8995912947	operating systems
0.8995893205	stochastic resonance
0.8995841736	sliding mode controller
0.8995737172	discrete event systems
0.8995639071	financial distress
0.8995420908	goal directed
0.8994955608	cross cultural
0.8994407589	job shop scheduling
0.8994345113	matrix inversion
0.8994045080	empirical mode decomposition
0.8993662042	focal plane
0.8993627270	wireless local area networks
0.8993611679	criteria decision making mcdm
0.8992885898	extended kalman filter ekf
0.8992725114	public key infrastructure
0.8992690100	domain ontology
0.8992440954	wireless network
0.8992227358	resource allocations
0.8992004655	multipath channels
0.8991890614	maximal ratio combining
0.8991751142	visual inspection
0.8991490005	subgame perfect
0.8991367388	false negative
0.8991172275	requirements elicitation
0.8991126000	microarray data
0.8990807543	mixed integer linear programming
0.8990805647	pattern mining
0.8990412069	land surface temperature
0.8990065995	graph matching
0.8990033842	intensive care unit
0.8989928950	sql queries
0.8989820014	spike trains
0.8989576222	meta heuristic
0.8989436908	heavy tailed
0.8989167098	model driven engineering
0.8989163132	haptic interaction
0.8989107385	lookup table
0.8988866602	open source projects
0.8988373720	error propagation
0.8988274368	multiple sequence alignment
0.8988149141	total weighted tardiness
0.8987935161	markov chain monte carlo mcmc
0.8987831653	live migration
0.8987815255	news stories
0.8987711249	burgers equation
0.8987663660	grammatical evolution
0.8987583003	networked control systems ncss
0.8986887957	policy enforcement
0.8986844507	integrated circuit
0.8986613971	pulse position modulation
0.8986610177	head pose estimation
0.8985477296	answer set programming asp
0.8985276290	digital preservation
0.8984825106	mc cdma
0.8984221765	healthcare professionals
0.8984017947	embedded processors
0.8983665925	fuzzy set theory
0.8983635852	vehicular ad hoc networks vanets
0.8983463322	head mounted display
0.8983431582	multi dimensional
0.8983404467	single ended
0.8983293998	positron emission tomography
0.8983254104	gene regulatory network
0.8983226197	ir uwb
0.8983110260	path loss
0.8982908013	information extraction
0.8982777127	web content
0.8982309842	electrical engineering
0.8982245325	affine projection
0.8981940557	boolean satisfiability
0.8981940300	pulse width modulation
0.8981088610	saudi arabia
0.8981045745	multithreaded programs
0.8980534520	link failures
0.8980183476	parse tree
0.8980139732	cold start
0.8980126839	product lines
0.8979793060	multilayer perceptron
0.8979676024	relation extraction
0.8979661771	sliding mode observer
0.8979548161	partial differential equations pdes
0.8979420330	emg signals
0.8979252116	force feedback
0.8979184243	membership functions
0.8978910370	triangular mesh
0.8978154130	higher order
0.8977657958	remote laboratories
0.8977439034	novice programmers
0.8977362647	closed itemsets
0.8977341767	primal dual
0.8977310558	technology enhanced learning
0.8977045401	torque ripple
0.8976762398	random number generators
0.8976693508	nash equilibrium ne
0.8976269107	stock exchange
0.8976257990	bee colony
0.8976071028	jpeg compression
0.8975971400	wireless communication
0.8975493654	service oriented computing
0.8974981036	brightness temperatures
0.8974972257	discrete logarithm problem
0.8974931977	distributed video coding
0.8974834608	deadlock free
0.8974352639	similarity measures
0.8974351080	triangle meshes
0.8974236440	finite horizon
0.8974181459	high dynamic range
0.8974166803	intrusion detection systems
0.8973791398	world wide web
0.8973386769	test suites
0.8973281630	digital elevation model dem
0.8973263506	nature inspired
0.8973200338	cellular neural networks
0.8972960627	mobile payment
0.8972662467	helmholtz equation
0.8972489228	land cover classification
0.8972440376	mobile phones
0.8972431702	immune inspired
0.8972267416	public key infrastructure pki
0.8971683495	incremental learning
0.8971415219	active suspension
0.8971322424	seam carving
0.8971244046	perfect csi
0.8970931674	virtual machine monitor
0.8970760366	biologically relevant
0.8970668549	financial market
0.8970666749	mu mimo
0.8970586196	multiple access
0.8970582940	transcriptional regulation
0.8970450849	sc fdma
0.8970390214	fading channel
0.8969813591	video streams
0.8969796532	health informatics
0.8969650526	sum rate
0.8969583465	surface reconstruction
0.8969227824	annual acm
0.8969211801	evaluation campaign
0.8969086564	current conveyor
0.8968945724	high level synthesis
0.8968902679	protein data bank
0.8968815611	query optimization
0.8968766922	parallel computing
0.8968670193	dct domain
0.8968630014	graduate students
0.8968507501	obs networks
0.8968134875	key generation
0.8967635603	comput phys
0.8967515214	hardware description language
0.8967427195	spectrum holes
0.8967217298	visual tracking
0.8967169344	digital signature
0.8967168829	urban environments
0.8966936605	video sequences
0.8966915217	term weighting
0.8966653894	mesh networks
0.8966619522	false positive
0.8966583551	indoor environments
0.8966433257	mobile agents
0.8966154827	ims ld
0.8966107118	infinite dimensional
0.8965951396	small molecule
0.8965741335	neural networks nns
0.8965682207	total variation tv
0.8964524156	enterprise service bus
0.8964435278	science citation index
0.8964115015	low noise amplifier
0.8963942211	dynamic spectrum access dsa
0.8963937945	fuzzy inference
0.8963680136	information fusion
0.8963628753	body area networks
0.8963448420	distributed hash table dht
0.8963015150	lego mindstorms
0.8962925558	appl math comput
0.8962908438	loosely coupled
0.8962769854	quadruped robot
0.8962657308	ip telephony
0.8962454363	mailing lists
0.8962355344	gaussian process regression
0.8962103163	quantile regression
0.8961407130	human robot interaction
0.8961397288	precedence constraints
0.8961339291	scientific computing
0.8961228193	aerosol optical
0.8961212413	episodic memory
0.8961099081	wavelength assignment
0.8960413141	scale invariant
0.8959979118	type ii
0.8959920274	combinational logic
0.8959819957	defect detection
0.8959782215	multihop wireless networks
0.8959559052	human activity
0.8959315782	primary user
0.8959076767	drosophila melanogaster
0.8959014109	electricity market
0.8958796232	bit loading
0.8958128361	robotic manipulator
0.8957831012	frequency selective channels
0.8957796740	buck boost
0.8957700876	buffer management
0.8957386679	software development projects
0.8957085145	blind signature
0.8956786297	semantic relations
0.8956315408	service oriented architectures soa
0.8955720137	location based services lbs
0.8955564905	post silicon
0.8955242812	internet traffic
0.8954986926	behavioral intention
0.8954889737	operational amplifiers
0.8954817978	knowledge creation
0.8954762536	inertial measurement unit
0.8954578996	aodv routing protocol
0.8954405507	hand gesture recognition
0.8954374550	en route
0.8954221309	annotated corpus
0.8954072534	software product line engineering
0.8953772481	model driven engineering mde
0.8953677164	location privacy
0.8952946525	semantic similarity
0.8952864519	conditional independence
0.8952502091	literature review
0.8952407337	medical informatics
0.8952095233	coarse grained reconfigurable
0.8951860925	low rank
0.8951851870	resource provisioning
0.8951826312	cryptographic primitives
0.8951805086	wavelet neural network
0.8951561150	signaling pathway
0.8950694824	graph transformation
0.8950666946	main memory
0.8950649687	internet service providers isps
0.8950577932	triangle mesh
0.8950514283	social choice
0.8950248874	cooperative transmission
0.8950013851	economic growth
0.8949790859	dynamic spectrum access
0.8949570866	ultra wide band uwb
0.8949525854	autonomic nervous
0.8949142086	motion vector
0.8949083772	radio frequency
0.8949039092	fourth order
0.8948762113	spectrum allocation
0.8948751307	dirichlet boundary conditions
0.8948479614	reversible watermarking
0.8948348342	digital signal processing dsp
0.8948265925	slot allocation
0.8948051692	query suggestion
0.8947955668	signaling pathways
0.8947809835	watermarking scheme
0.8947751066	partial differential equation pde
0.8947669909	patient care
0.8947440863	l2 norm
0.8947005958	business process execution language
0.8946644505	bounded model checking
0.8946556487	evolutionary robotics
0.8946457108	enterprise resource planning
0.8946275631	rigid bodies
0.8946246612	cut elimination
0.8945708616	worm propagation
0.8945352007	social influence
0.8945165655	participatory design
0.8944867925	bare pc
0.8944864865	signature verification
0.8944805085	correlated sources
0.8944750565	finite elements
0.8944660353	ergodic capacity
0.8944427654	wireless local area networks wlans
0.8944385975	high frequency
0.8944172752	rich internet applications
0.8943841153	audio visual
0.8943692750	drug delivery
0.8943445445	autonomous decentralized
0.8943290582	output feedback control
0.8943159620	narrow band
0.8943155244	clonal selection
0.8942389747	radial basis function neural networks
0.8942343990	large vocabulary continuous speech recognition
0.8942148040	stochastic approximation
0.8942027273	white box
0.8941725038	virtual teams
0.8941652037	logic circuits
0.8941352094	solitary waves
0.8941310917	multiobjective evolutionary
0.8941256012	multi modal
0.8941251946	short range
0.8941087383	publish subscribe
0.8940831998	cross lingual
0.8940491047	broadcast channel
0.8940483288	iterative learning control
0.8940380524	image annotation
0.8940351586	marginal distribution
0.8940003353	boltzmann machines
0.8939676319	voice conversion
0.8939641854	likelihood ratio
0.8939575222	bond graph
0.8939363649	coded modulation
0.8939313747	block fading channels
0.8939304176	anatomical landmarks
0.8939256643	session initiation protocol
0.8938999960	human centered
0.8938902313	doppler frequency
0.8938881014	linear feedback shift
0.8938791267	passive optical network
0.8938640776	double auction
0.8938375196	variational inference
0.8938177825	outer bound
0.8937964076	design patterns
0.8937491206	lattice reduction
0.8937306114	fixed points
0.8937249004	location estimation
0.8937232290	total tardiness
0.8936382128	ratio combining mrc
0.8936167044	hydrogen bond
0.8936104407	mel frequency cepstral coefficients
0.8935857005	cell broadband engine
0.8935847740	vegetation cover
0.8935498813	directed graph
0.8935390800	web portals
0.8935303205	web accessibility
0.8935092745	sense amplifier
0.8934806416	high school
0.8934792074	standard cell library
0.8934763147	wi fi
0.8934465593	labelled transition
0.8934283902	rule base
0.8934258081	quality function deployment
0.8934198827	mixed integer programming mip
0.8934060962	statistical mechanics
0.8934013749	empirical bayes
0.8933101160	negative correlation
0.8932953938	angular velocity
0.8932905432	tree structured
0.8932694098	channel allocation
0.8932527547	phylogenetic trees
0.8932392260	cross site scripting
0.8932036894	feedback loops
0.8931944060	airborne hyperspectral
0.8931859346	orthogonal frequency division multiple access ofdma
0.8931523507	parity check
0.8931229397	voice activity detection
0.8931171568	object oriented programming
0.8931150337	orthogonal frequency division multiple access
0.8931087518	risk averse
0.8931001626	asynchronous circuits
0.8930981001	spike timing dependent plasticity
0.8930916838	frequency divider
0.8930673097	robot navigation
0.8930602367	ts fuzzy
0.8930125206	user generated content
0.8929734981	multiple kernel learning
0.8929522796	focused crawling
0.8929117240	media independent handover
0.8929060419	dna sequences
0.8929052277	phase locked loop
0.8928848438	disruption tolerant
0.8928767864	majority vote
0.8928335992	symbol error rate ser
0.8928168667	phase locked loop pll
0.8928045028	disparity estimation
0.8927610537	sequential patterns
0.8927226171	finite difference method
0.8927201059	spectral radius
0.8926792119	cma es
0.8926719435	selective attention
0.8926228094	music information retrieval
0.8926130499	suffix trees
0.8925796353	iir filters
0.8925713069	free space optical
0.8925552313	software quality
0.8925415185	gold standard
0.8925240134	diffusion coefficient
0.8925185965	face tracking
0.8925086550	disparity map
0.8924780990	probability density function
0.8924737187	dead zone
0.8924686166	electric vehicle
0.8924666412	distributed coordination function dcf
0.8924470991	control flow
0.8924374385	tft lcd
0.8924243418	nonlinear programming
0.8924137354	north carolina
0.8924054664	analytic hierarchy process ahp
0.8923750423	enterprise architecture ea
0.8923665402	advection diffusion
0.8923475580	speech quality
0.8923455796	structural health monitoring
0.8923430592	high energy physics
0.8923414514	low bit rate
0.8923342554	data centers
0.8922846825	nonparametric bayesian
0.8922775542	cellular neural network
0.8922643481	sequential monte carlo
0.8922494918	multi threaded
0.8922322508	web ontology language owl
0.8922299050	artificial fish
0.8922279410	software defined radio sdr
0.8922078353	web application
0.8921637246	carrier frequency
0.8921619870	flow control
0.8921438810	likelihood ratio test
0.8921308391	developing countries
0.8921302141	parabolic equations
0.8921120120	tag clouds
0.8920678584	predicate abstraction
0.8920081842	abstraction refinement
0.8920041961	information flow
0.8919795534	bad smells
0.8919689310	term rewrite
0.8919628924	virtual enterprise
0.8919350498	boundary conditions
0.8919181830	quad core
0.8919075614	decision feedback
0.8918998311	parallel machines
0.8918947869	feature subset selection
0.8918656503	instruction cache
0.8918646864	peak power
0.8918544453	image fusion
0.8918535542	hardware acceleration
0.8918235092	flip flop
0.8917853330	diversity combining
0.8917448673	weakly supervised
0.8917283721	domain specific
0.8916670722	anti windup
0.8916563362	tolerant networks dtns
0.8916479735	frequent itemset
0.8916081985	application layer
0.8915976973	boundary element method
0.8915373040	analog circuit
0.8915331038	advanced encryption standard aes
0.8915231454	uml profile
0.8914974130	bio inspired
0.8914900470	rna secondary structure
0.8914891963	instruction level parallelism
0.8914872332	voltage controlled oscillator vco
0.8914604857	resource constrained
0.8914423574	high speed downlink packet access hsdpa
0.8914365609	social interaction
0.8914260071	duality gap
0.8914155889	relay assisted
0.8914021148	iterative closest point
0.8913984621	vector space
0.8913878799	multi criteria decision making
0.8913582764	subscriber stations
0.8913375196	mimo ofdm
0.8913293933	relay channel
0.8913278755	electron microscopy
0.8913250325	signal detection
0.8913148042	np complete
0.8912821483	tcp congestion control
0.8912558409	additive noise
0.8912489381	custom instructions
0.8912417153	foreign exchange
0.8912362672	extreme learning machine
0.8912192355	type inference
0.8911870941	discriminative training
0.8911692727	achievable rate
0.8911417054	mass spring
0.8910890892	secondary structure
0.8910885178	master equation
0.8910644637	linear matrix inequalities
0.8910310137	minimum spanning trees
0.8910052699	technology acceptance model tam
0.8910026819	multiple sclerosis
0.8910004964	turbo coded
0.8909596281	transform domain
0.8909325554	cache misses
0.8908835327	body sensor networks
0.8908778286	brain activation
0.8907982282	voltage source
0.8907928639	hilbert spaces
0.8907893500	equivalent circuit
0.8907883534	genome wide
0.8907741644	real valued
0.8907637073	cluster analysis
0.8907590213	text retrieval
0.8907496212	pareto optimality
0.8907277243	low voltage
0.8907229488	random waypoint
0.8906884013	nonlinear dimensionality reduction
0.8906874412	electrical power
0.8906624886	dielectric constant
0.8906341417	user authentication
0.8905880472	faculty members
0.8905826544	ltl model checking
0.8905273253	composite web services
0.8905179229	protein fold
0.8904778291	combinational circuits
0.8904613867	mimo ofdm systems
0.8904257687	asymptotic stability
0.8904110623	bounded treewidth
0.8903304715	wavelet packet transform
0.8903137695	ad hoc
0.8903072976	bi directional
0.8902728071	calling context
0.8902568709	narrowband interference
0.8902390636	median filtering
0.8902370420	pseudo relevance feedback
0.8902096825	network traffic
0.8901808798	query log
0.8901329176	takagi sugeno fuzzy
0.8900851491	provable security
0.8900828827	dempster shafer theory
0.8900800283	relevance judgments
0.8900635349	service compositions
0.8900604123	point set
0.8900317980	mixed initiative
0.8900296361	switched linear systems
0.8900266858	cyber security
0.8899776158	introductory programming
0.8899774594	chip mpsoc
0.8899601486	frequency shift keying
0.8899517333	unstructured meshes
0.8899430163	accelerated life
0.8899404385	adjacency matrix
0.8899220651	rate control
0.8899168112	linear prediction
0.8898661158	wireless broadband
0.8898623025	conflict detection
0.8898557226	high throughput
0.8898381249	partial order reduction
0.8898316518	topological spaces
0.8898238933	yellow river
0.8898187004	brute force
0.8898081902	soft error
0.8897886665	desktop grid
0.8897877233	bit error
0.8897457005	compressed domain
0.8897120691	aspect oriented programming aop
0.8897007231	supply voltages
0.8896865043	data integration
0.8896665787	genetic operators
0.8895969811	hot carrier
0.8895603965	agent societies
0.8895347118	scale invariant feature transform sift
0.8895275253	hardware implementation
0.8895229762	task scheduling
0.8895003355	unit testing
0.8894892477	constraint handling
0.8894831465	fuzzy control
0.8894808384	tangible user interfaces
0.8894566128	clustering algorithm
0.8894156218	heavy traffic
0.8893984031	exchange rate
0.8893948960	packet dropping
0.8893707134	receding horizon control
0.8893658905	nursing care
0.8893375043	data warehouses
0.8893088658	systems biology
0.8893053410	service oriented computing soc
0.8892932381	para la
0.8892694537	cosine similarity
0.8892593636	handwritten characters
0.8892454942	maximum power point
0.8892277412	semantic wiki
0.8891686853	contingency table
0.8891564501	information technology
0.8890875343	bounding volume
0.8890773672	crime scene
0.8890515263	fitness landscapes
0.8890349637	dvb s2
0.8890215236	web usage mining
0.8890110836	packet switched
0.8889856424	ku band
0.8889712034	linear quadratic regulator
0.8889695834	residual energy
0.8889592038	probabilistic inference
0.8889294706	state machine
0.8889034782	structured p2p
0.8888675351	optic nerve
0.8888454217	transient response
0.8888303110	dynamic voltage scaling
0.8887999479	soil moisture retrieval
0.8887817652	kl divergence
0.8887715763	spectral subtraction
0.8887096852	pairwise comparison
0.8886947648	central limit theorem
0.8886181875	rbf network
0.8885992438	flip chip
0.8885936802	network process anp
0.8885736200	wireless local area network wlan
0.8885051374	web resources
0.8885043561	radial basis function rbf neural
0.8884756163	deep packet inspection
0.8884670808	digital media
0.8884644048	clonal selection algorithm
0.8884218448	digital forensic
0.8884060928	transport layer
0.8883626499	message passing interface mpi
0.8883606282	context dependent
0.8883411153	distance education
0.8883177223	user involvement
0.8883115425	floating point arithmetic
0.8882785837	model driven development
0.8882345892	sports video
0.8882325465	quadratic form
0.8881849410	simulated annealing algorithm
0.8881342528	chinese word segmentation
0.8881081791	shot boundary detection
0.8879942044	differential equation
0.8879743003	document clustering
0.8879686293	half duplex relay
0.8879641111	fundamental limits
0.8879508471	packet switching
0.8879474569	light source
0.8879441697	safety critical
0.8879078241	coalitional games
0.8879023283	nuclear norm
0.8878890397	statistical process control
0.8878615652	block diagonal
0.8878105303	grid infrastructure
0.8878027853	diagonally dominant
0.8877666892	metabolic networks
0.8877636494	lcd tv
0.8877514871	low density parity check ldpc
0.8877498942	hamilton jacobi
0.8877439126	radio channel
0.8877347634	ml decoding
0.8877302919	perceived usefulness
0.8877292102	thread level parallelism
0.8876694933	cooperative communication
0.8876297887	power grid
0.8876151927	set valued
0.8875986080	asymptotical stability
0.8875891838	cognitive impairments
0.8875840324	input vector
0.8875705549	multi resolution
0.8875684371	fixed priority
0.8875597645	public safety
0.8875535558	multi hop
0.8875420220	unified modeling language uml
0.8875345349	concept drift
0.8875258643	neural network pnn
0.8875228772	stochastic petri nets
0.8875046340	service level agreement sla
0.8874913894	scale space
0.8874510038	particle swarm optimization algorithm
0.8874368568	load forecasting
0.8874126861	pedestrian navigation
0.8873994067	proportional integral derivative pid
0.8873632064	transmission control protocol tcp
0.8873482145	regulatory compliance
0.8873464559	fuzzy numbers
0.8873452583	image matching
0.8873271091	high dimensional
0.8873196441	content providers
0.8873052700	mental rotation
0.8872891426	multi layer
0.8872856746	internet protocol ip
0.8872813151	windows xp
0.8872308552	gaussian interference channel
0.8872099360	function approximation
0.8871992836	production planning
0.8871952267	fuzzy controller
0.8871570519	bounded rationality
0.8871028111	response surface methodology
0.8870891405	energy constrained
0.8870757195	mutation operator
0.8870387084	infra red
0.8870288365	lifetime maximization
0.8870071448	color filter array
0.8870035711	opportunistic routing
0.8870027182	controller area network
0.8869962562	semantic web services
0.8869944543	power line
0.8869915108	optimal control
0.8869734113	utility maximization
0.8869526773	equal gain combining
0.8869122216	active queue management
0.8869113073	automatic image annotation
0.8868884563	schema mappings
0.8868597926	integer linear programming ilp
0.8868411202	flat fading channels
0.8868198064	navier stokes equations
0.8868067490	indoor localization
0.8867842087	phase transition
0.8867684954	frequency offset estimation
0.8867550218	software testing
0.8867544071	usability testing
0.8867474979	parietal cortex
0.8867306429	pilot symbol
0.8866845930	host identity protocol
0.8866789830	mobile computing
0.8866408030	partial orders
0.8866315363	link state routing
0.8866229681	optical networks
0.8866005206	saccharomyces cerevisiae
0.8865996863	production line
0.8865948784	high density
0.8865717929	support vector
0.8865496496	reconfigurable architectures
0.8865346417	proteinprotein interactions
0.8865258874	large eddy
0.8865042077	multilayer perceptrons
0.8865022684	speckle noise
0.8864650187	biped robots
0.8864378524	cyclic delay diversity
0.8864329892	conditional entropy
0.8864195748	distance measure
0.8864083175	database management systems
0.8863673809	cross validation
0.8863403712	data stream
0.8863157815	channel state information
0.8863073064	service level agreement
0.8862599749	resource availability
0.8862402247	secret keys
0.8862394558	plasma display
0.8861897856	cache miss
0.8861389705	water pollution
0.8861344119	modeling language
0.8861156881	standard deviation
0.8860323102	monte carlo simulation
0.8860267593	win win
0.8860090008	gauss seidel
0.8860024955	block codes
0.8859590436	parametric uncertainties
0.8859201417	expectation maximization
0.8859060337	flat fading
0.8859045509	global exponential stability
0.8859042995	anti collision
0.8858851347	cooperative sensing
0.8858394752	multistage stochastic
0.8858098770	maximum independent set
0.8858040830	supplementary material
0.8857991376	abstract syntax
0.8857741240	dt cwt
0.8857548005	land surface
0.8857544840	long term evolution lte
0.8857502034	formal concept analysis fca
0.8857447549	sink node
0.8857254659	field programmable gate array fpga
0.8857165599	output feedback
0.8856507685	double precision
0.8856421823	covariance matrices
0.8856400884	trajectory planning
0.8856335504	tangible interaction
0.8856288041	user profiles
0.8856074187	hemodynamic response
0.8855991321	software projects
0.8855826752	linear parameter varying
0.8855626432	hot spots
0.8855396334	ls svm
0.8855348772	probability density function pdf
0.8855164003	network security
0.8854587546	tf idf
0.8854554940	success factors
0.8854453780	response surface
0.8854300908	semantically annotated
0.8854058825	smart environments
0.8853822548	dynamic load balancing
0.8853497046	error resilient
0.8853236105	transmission lines
0.8852714767	peer tutoring
0.8852316630	ai planning
0.8852290275	owl dl
0.8851896619	multi carrier
0.8851801975	virtual organizations
0.8851787346	cross modal
0.8851631104	complex valued
0.8851316267	corpus callosum
0.8851306113	steiner triple
0.8851287236	turbo coding
0.8850898927	model driven architecture mda
0.8850859291	high definition
0.8850841241	high precision
0.8850689167	actor critic
0.8850481924	data gathering
0.8850450665	clinical practice
0.8849570414	north america
0.8849569888	satellite images
0.8849380259	static analysis
0.8849328083	ip cores
0.8849159113	jacobian matrix
0.8849088397	pilot aided
0.8849019617	authentication protocol
0.8848875570	uml class diagram
0.8848615253	deformable objects
0.8848539262	tuning range
0.8848323512	gaussian noise
0.8848238201	concurrent transmissions
0.8847966503	foreground segmentation
0.8847869426	proxy server
0.8847846388	revenue management
0.8847818176	bit error rate ber
0.8847661166	file transfer
0.8847571560	section iv
0.8847471439	principal components analysis pca
0.8847388365	query reformulation
0.8847378723	service provisioning
0.8847217891	refractive index
0.8847182221	statistical significance
0.8847128584	lecture notes
0.8847107903	interactive visualization
0.8846578479	quality control
0.8846549454	human interaction
0.8846450928	patient records
0.8846029007	online social networks
0.8845918879	mission critical
0.8845843782	context free grammars
0.8845405126	phylogenetic tree
0.8845171344	unbiased estimator
0.8845098985	electronic government
0.8845055502	quantization index modulation
0.8844962432	mobile terminal
0.8844761978	domain ontologies
0.8844639621	user profile
0.8844205986	energy aware
0.8843797841	security policy
0.8843688744	resource constrained project scheduling
0.8843499158	bio pepa
0.8843407171	maximum principle
0.8843069547	public goods
0.8843040326	ip multimedia subsystem
0.8842962153	handwritten text
0.8842770305	auto regressive
0.8842625976	finite impulse response fir
0.8842540330	df relaying
0.8842400074	remote monitoring
0.8842260681	vehicular ad hoc networks
0.8842143089	failure recovery
0.8842080804	brightness temperature
0.8842023810	push pull
0.8841564377	phase transitions
0.8841208399	information seeking
0.8840975542	total domination
0.8840946981	incompressible navier stokes equations
0.8840632649	imt advanced
0.8840297681	population dynamics
0.8840170361	grobner basis
0.8839790329	multiobjective evolutionary algorithms
0.8839748043	contextual information
0.8839374651	sound source
0.8838878952	image watermarking
0.8838831404	maximum cardinality
0.8838537729	adaptive modulation
0.8838513505	light emitting diodes
0.8838454490	software architecture
0.8838238413	grand challenge
0.8837915232	power reduction
0.8837823172	wireless access networks
0.8837820366	key management scheme
0.8837702006	wii remote
0.8836935022	low duty cycle
0.8836444783	binary tree
0.8836193434	business rules
0.8836106048	color texture
0.8836093153	soft tissues
0.8835742580	feature vectors
0.8835623325	laplace beltrami
0.8835137325	weibull distribution
0.8835134085	visual perception
0.8835033741	ir drop
0.8834867223	euler lagrange
0.8834503280	analytic hierarchy process
0.8834098153	mos transistors
0.8834021583	pseudorandom number
0.8833664390	role playing games
0.8833526793	newtons method
0.8833178765	shape descriptors
0.8833034277	broadcast encryption
0.8832936788	dempster shafer
0.8832727085	load shedding
0.8832625764	user centered
0.8832560613	workflow management systems
0.8832088841	remote attestation
0.8831714425	exponential stability
0.8831493220	dl lite
0.8831230553	finite automaton
0.8831056153	ofdm signals
0.8830972297	connected subgraph
0.8830609319	adaptive filtering
0.8830597722	high mobility
0.8830543537	file format
0.8830526747	dos attack
0.8829777410	virtual backbone
0.8829693149	reed solomon
0.8829582329	radio frequency identification
0.8829209429	product design
0.8828817869	multiple input multiple output mimo
0.8828811438	signature schemes
0.8828804667	min cut
0.8828683926	predictive control
0.8828406734	routing algorithm
0.8828068754	temporally correlated
0.8827828163	principal component
0.8827504442	illumination invariant
0.8827433293	audio video
0.8826755645	quality attributes
0.8826739012	schrodinger equation
0.8826708910	light weight
0.8826585567	light emitting diode
0.8826235357	high spatial resolution
0.8825712237	patient specific
0.8825420269	mb ofdm
0.8825372284	grid environments
0.8824299695	finite state transducers
0.8824112233	curve fitting
0.8823926952	team members
0.8823810418	mutual coupling
0.8823789016	message dissemination
0.8823625990	mixed finite element
0.8823619579	multipath fading channel
0.8823533162	boundary detection
0.8823532363	road traffic
0.8823498188	identity based cryptography
0.8823284455	scaling laws
0.8823181472	fuzzy rule base
0.8822297430	finger vein
0.8822125436	downlink transmission
0.8822056173	plagiarism detection
0.8821979252	european commission
0.8821839304	binary decision diagrams
0.8821719680	social presence
0.8821558507	secondary schools
0.8821540866	external memory
0.8821129111	xilinx fpga
0.8820956641	high performance computing
0.8820827914	bayesian estimation
0.8820728319	case study
0.8820660446	medial temporal lobe
0.8820359213	field programmable gate arrays fpgas
0.8820286975	feed forward neural network
0.8820025706	functional mri
0.8819891407	spectral bands
0.8819458905	complex event processing
0.8819250552	model driven development mdd
0.8819143972	processing units
0.8819100060	domain specific languages
0.8819003681	heart failure
0.8818924963	continuance intention
0.8818646239	cognitive informatics
0.8818426920	field programmable gate array
0.8818371383	critical path
0.8818229081	mobile nodes
0.8818082520	sentence level
0.8817948104	privacy concerns
0.8817819137	voltage regulator
0.8817760172	multi attribute
0.8817740238	genomic sequences
0.8817695631	public key cryptosystems
0.8817221928	algebraic immunity
0.8817094097	access point
0.8816877470	extrinsic information transfer exit charts
0.8816744481	context free grammar
0.8816742916	network management
0.8816564238	batch processing
0.8816282810	user behavior
0.8816185716	route selection
0.8816137454	micro electro mechanical systems mems
0.8815945534	stochastic gradient descent
0.8815920292	distance transform
0.8815129812	enterprise architecture
0.8815126482	difference equations
0.8815111096	lte advanced
0.8815083928	pervasive healthcare
0.8813897663	remote access
0.8813889969	porous media
0.8813490944	recurrence relations
0.8813322182	integer linear programming
0.8813228481	fuzzy reasoning
0.8812794693	multi core
0.8812788269	ip addresses
0.8812750206	negative bias temperature instability
0.8812529272	road safety
0.8812443193	energy savings
0.8811985122	long tail
0.8811898852	spatial resolution
0.8811698693	slepian wolf
0.8811465585	functional connectivity
0.8811252501	test data generation
0.8811027847	phone calls
0.8810995250	open ended
0.8810977360	queueing theory
0.8810449629	wireless sensor
0.8810169649	hydrogen bonding
0.8810142420	visualization tool
0.8810077333	natural scene
0.8809800293	lp norm
0.8809634719	degrees of freedom dof
0.8809328780	answer set semantics
0.8809322655	piezoelectric actuators
0.8809281351	fuzzy cognitive maps
0.8808949638	preference relations
0.8808914055	false alarm
0.8808580345	hilbert space
0.8807359298	sentiment analysis
0.8807057875	runtime verification
0.8806856203	lagrange multipliers
0.8806714953	uml class diagrams
0.8806493266	reed solomon rs
0.8806488582	cell phones
0.8806374432	inter mode decision
0.8806309478	gps receiver
0.8805983247	bin packing problem
0.8805901301	kronecker product
0.8805628966	security threats
0.8805472337	car navigation
0.8804963617	olfactory display
0.8804768239	imperfect channel state information
0.8804384844	unmodeled dynamics
0.8804381719	multi armed bandit
0.8804167077	maximal ratio combining mrc
0.8804151627	packet delivery ratio
0.8804127845	program comprehension
0.8804065437	failure detection
0.8803701424	globally convergent
0.8803146672	singing voice
0.8802928491	world wide web www
0.8802922392	nuclear magnetic resonance
0.8802768806	quasi newton
0.8802540049	socio technical
0.8802434548	java card
0.8802345632	low resolution
0.8802243814	steepest descent
0.8802112011	dublin core
0.8802048321	man machine
0.8801701243	xml document
0.8801204714	finitely generated
0.8801186536	numerical simulation
0.8801183765	delayed neural networks
0.8800933249	transaction level
0.8800785441	supervised classification
0.8800738121	load balanced
0.8800716638	mimo radar
0.8800700004	deep web
0.8800630907	reliable multicast
0.8800228267	fault isolation
0.8800151798	pearson correlation
0.8800012917	complex dynamical networks
0.8799863763	packet classification
0.8799830968	argumentation frameworks
0.8799471207	receiver operating characteristic roc
0.8799425283	information security
0.8799240589	photo sharing
0.8798946416	complexity reduction
0.8798927275	nearest neighbor nn
0.8798871565	incentive mechanism
0.8798512760	inter cell interference
0.8798102741	color correction
0.8797849058	asymptotically optimal
0.8797659366	proportional integral
0.8797653110	autoregressive moving average
0.8797556279	topology control
0.8797522433	optimal control problems
0.8797387912	partial least squares pls
0.8796790002	clock generator
0.8796506461	doppler radar
0.8796339878	error bounds
0.8796200933	active appearance models
0.8795943682	public displays
0.8795631795	arabidopsis thaliana
0.8795464148	wireless personal area networks
0.8795194997	matlab simulink
0.8794791753	protein structure
0.8794695599	pi controller
0.8794474857	robot soccer
0.8794431065	dynamic time warping dtw
0.8794155422	route planning
0.8794008608	focal length
0.8793831345	shop floor
0.8793704096	ad hoc network
0.8793430654	wireless body area
0.8793173512	wireless multihop networks
0.8793036246	autonomous navigation
0.8793031572	intrusion detection system ids
0.8792967641	pair programming
0.8792707990	critical thinking
0.8792696910	teacher training
0.8792581580	confidence interval
0.8792493359	single nucleotide polymorphisms snps
0.8792196710	fat tree
0.8791757582	music genre
0.8791578571	spatial temporal
0.8791509581	digital camera
0.8791497949	utility functions
0.8791489521	transfer learning
0.8791460092	cognitive psychology
0.8790734432	genome scale
0.8790573572	metal oxide semiconductor
0.8789946618	heterogeneous wireless networks
0.8789795988	parameter optimization
0.8789221012	em algorithm
0.8788883891	field effect transistor
0.8788669647	delay line
0.8788556106	radio resource allocation
0.8788448574	task assignment
0.8788325317	network lifetime
0.8788293948	additive white gaussian noise awgn
0.8788191439	union bound
0.8788125806	error protection
0.8788120650	face database
0.8788069486	image inpainting
0.8788062305	beam forming
0.8787981283	software maintenance
0.8787960605	naive bayes classifiers
0.8787611045	insider attacks
0.8787581281	locality sensitive hashing
0.8787379608	semi markov
0.8786551954	mimo systems
0.8786281675	content creation
0.8786192207	diversity multiplexing tradeoff dmt
0.8785846271	socio economic
0.8785835587	digital signal processing
0.8785319771	location based services
0.8784632523	differentiated services
0.8784307051	free viewpoint
0.8784125531	proxy signature scheme
0.8783729838	product reviews
0.8783688027	body bias
0.8783676374	user centered design
0.8783323838	assembly line
0.8783263966	interference alignment
0.8782839324	software process improvement
0.8782703949	solder joint
0.8782352686	operational transconductance
0.8781888519	neighbor selection
0.8781581683	hybrid automata
0.8781568547	cost sensitive
0.8781424716	aspect ratio
0.8781304047	exhaustive search
0.8781142454	monte carlo method
0.8780987493	confidential messages
0.8780869505	node mobility
0.8780709587	social network sites
0.8780702161	dna sequencing
0.8780394183	interval arithmetic
0.8780388774	semi blind
0.8780295602	finite element methods
0.8780206900	single carrier sc
0.8780053556	active power filter
0.8780014271	error exponent
0.8779840397	mobile banking
0.8779831859	confidence measures
0.8779679813	signal integrity
0.8779501940	natural languages
0.8779480039	case base
0.8779000460	grid infrastructures
0.8778998400	human computer interaction hci
0.8778784617	controller synthesis
0.8778613402	error recovery
0.8778526259	perfect secrecy
0.8778111350	design principles
0.8778019545	l1 norm
0.8777872472	student engagement
0.8777798456	batch mode
0.8777682194	word error rate
0.8777399957	heterogeneous networks
0.8776275693	underwater acoustic sensor
0.8776048111	power spectrum
0.8775974125	robotic fish
0.8775946467	voxel based morphometry
0.8775475807	minimum energy
0.8775337303	convex relaxation
0.8775233613	hand held
0.8774758133	radio propagation
0.8774751578	brain tissue
0.8774416763	flip flops
0.8774360607	user interface design
0.8774270923	event related potentials erps
0.8774028181	game ai
0.8773960030	multihop relay
0.8773909321	chi squared
0.8773634066	binding site
0.8773141173	ultrasound imaging
0.8773065457	predicate logic
0.8772856325	active noise control
0.8772573973	future internet
0.8772518958	common sense
0.8772102036	unscented kalman
0.8772077561	low density parity check codes
0.8771952271	scale invariant feature transform
0.8771834166	passage retrieval
0.8771832735	active shape model
0.8771502706	newton raphson
0.8771429914	ab initio
0.8771419150	test case prioritization
0.8771234049	power factor correction
0.8771150994	clinical guidelines
0.8770888240	direct sequence spread spectrum
0.8770581038	divisible load
0.8770464440	dynamic power management
0.8770460296	spatial patterns
0.8769702466	cycle accurate
0.8769526293	minimum description length mdl
0.8769330222	carrier frequency offset cfo
0.8768912629	power aware
0.8768901922	dna copy number
0.8768784934	covert channels
0.8768451496	agent oriented
0.8768426923	agile development
0.8768286560	frequency modulation
0.8768099632	delay jitter
0.8767274121	key recovery
0.8767224564	mining association rules
0.8766598287	neighborhood search
0.8766430986	satisfiability sat
0.8766205324	travelling wave solutions
0.8766148719	dc dc converter
0.8765789963	nearest neighbor search
0.8765779381	sequence dependent setup times
0.8765693698	circular arc
0.8765651578	silicon substrate
0.8765493454	medical image
0.8765442724	gpu accelerated
0.8765434055	product development
0.8765255566	lyapunov krasovskii
0.8765247531	convolutional code
0.8765154534	home network
0.8765122009	frequency selectivity
0.8764383821	spectrum access
0.8764113269	random geometric graphs
0.8763884401	immersed boundary
0.8763767971	hessian matrix
0.8763632119	power spectral density
0.8763308421	vehicle routing
0.8763274493	orthogonal frequency division multiplexing
0.8763226201	anti jamming
0.8763113780	autonomous vehicle
0.8763001407	word alignment
0.8762687679	human machine interaction
0.8762489916	robust stability
0.8762335360	protein interaction ppi
0.8762259398	authentication scheme
0.8762032879	wearable computing
0.8761405447	development lifecycle
0.8761232385	multi layer perceptron
0.8761097705	control chart
0.8761027263	multi objective optimization
0.8761003483	content sharing
0.8760969295	defect tolerance
0.8760962198	knee joint
0.8760650727	incidence angle
0.8760574515	control strategy
0.8760304269	energy management
0.8760270121	mumford shah
0.8758928557	rna secondary structure prediction
0.8758847534	image coding
0.8758564782	learning vector quantization
0.8758537004	differential evolution algorithm
0.8758294102	surface reflectance
0.8758215816	role assignment
0.8758062751	sparse coding
0.8758014437	sequential quadratic programming
0.8757971399	job shop scheduling problem
0.8757812385	switching activity
0.8757517419	pseudo random
0.8757453845	document images
0.8757061707	electromagnetic fields
0.8757036993	bursty traffic
0.8756900581	edge preserving
0.8756834666	sc fde
0.8756560289	cmos image sensor
0.8756519883	moisture content
0.8755626169	intermittent connectivity
0.8755545281	inverse dynamics
0.8755148248	population diversity
0.8755141454	entity resolution
0.8754744782	content based image retrieval
0.8754639800	anti virus
0.8754514586	compiler optimizations
0.8754474856	vector quantizer
0.8754262582	fuzzy ahp
0.8754248291	protein interaction networks
0.8754060270	autonomous vehicles
0.8753848677	output feedback controller
0.8753779792	dna sequence
0.8753388801	baum welch
0.8753149254	high voltage
0.8752887243	risk analysis
0.8752851493	transmit powers
0.8752791982	bullwhip effect
0.8752760564	frequency bands
0.8752204418	security protocols
0.8751675062	constraint solver
0.8751360017	tree construction
0.8750734148	inverse scattering
0.8750619799	message delivery
0.8750581393	discontinuous galerkin method
0.8750314623	intelligent agent
0.8750173601	human behavior
0.8749956362	soft handoff
0.8748718441	mobile networks
0.8748558936	dc dc converters
0.8748544868	motion blur
0.8748439367	weighted voting
0.8748432803	wikipedia articles
0.8748089225	shared cache
0.8747932107	exponential distribution
0.8747866777	quasi static
0.8747836811	secrecy capacity
0.8747790645	arc consistency
0.8747543711	galois field
0.8746973180	input output
0.8746795018	scheduling problem
0.8746793064	partner selection
0.8746575350	multiobjective genetic
0.8746488817	query rewriting
0.8746355261	lsb matching
0.8745361477	unsupervised clustering
0.8745229089	role based access control
0.8744875407	electrode array
0.8744771929	stochastic programming
0.8744734013	outage capacity
0.8744291171	binary search
0.8744191800	traffic management
0.8743386912	fully differential
0.8743285080	interaction design
0.8743274428	autonomous agents
0.8742968937	vector valued
0.8742233435	single nucleotide polymorphism
0.8742191228	recursive least squares rls
0.8742019621	ccd camera
0.8741990240	model reference adaptive
0.8741339367	ofdma cellular
0.8741072157	special issue
0.8740920441	tensor voting
0.8740732018	navier stokes
0.8740639121	privacy policies
0.8740529865	tomlinson harashima precoding
0.8740474980	statistical static timing analysis
0.8740365417	compressed video
0.8739634206	cross entropy
0.8738739951	video shot
0.8738676304	window size
0.8738642822	throughput improvement
0.8738404666	optimal power allocation
0.8738148731	shortest path problem
0.8737950423	coded cooperation
0.8737785888	virtual laboratory
0.8737705162	fuzzy comprehensive evaluation
0.8737487064	relevance vector machine
0.8737221480	perfect reconstruction
0.8736969593	runtime monitoring
0.8736636396	motor cortex
0.8736252881	principal components analysis
0.8735566849	np hardness
0.8735544350	hamiltonian path
0.8735226265	vlsi implementation
0.8735010485	bezier curve
0.8734888198	enterprise mashups
0.8734759443	passive optical networks
0.8734344543	diffusion weighted
0.8734045748	delay insensitive
0.8733677577	fish eye
0.8733475405	decision diagrams
0.8733431258	mimo relay
0.8733385821	van der
0.8733357585	band limited
0.8733028361	cancer diagnosis
0.8732957719	tactile display
0.8732777356	transmitter receiver
0.8732777241	collision free
0.8732712217	multiplayer games
0.8732697440	functional programming
0.8732673897	multiple sequence alignments
0.8732671811	compression ratios
0.8732592843	ws cdl
0.8732571084	memory management
0.8732290763	lotka volterra
0.8732210004	quadratic assignment problem
0.8731838859	service selection
0.8731756811	speech signal
0.8731595671	graph drawing
0.8731433256	fine granularity
0.8731400362	brain computer interface bci
0.8731053067	query logs
0.8731040556	linear discriminant
0.8730776477	spoken language understanding
0.8730725277	single carrier frequency division multiple access
0.8730480972	pulse coupled neural
0.8730386195	optimal resource allocation
0.8729997576	linearly separable
0.8729965392	real options
0.8729579485	cingulate cortex
0.8729420400	channel coding
0.8729416717	flow shop scheduling
0.8728857661	partially observable markov decision
0.8728630315	structural equation modeling
0.8728209905	link capacity
0.8727905362	packet loss rate
0.8727764233	digital divide
0.8727064516	diffie hellman
0.8726839284	circuit design
0.8726779846	vehicular traffic
0.8726773033	exponential convergence
0.8726686583	rate distortion optimization
0.8726673922	chance constrained
0.8726583721	max min fair
0.8726264116	erp implementation
0.8726259390	graph grammars
0.8726239013	visual cues
0.8726110302	fingerprint recognition
0.8725785075	bilateral filtering
0.8725621416	fluid dynamics
0.8725302557	automatic summarization
0.8724839643	programmable gate array
0.8724457464	quantum inspired
0.8724443364	error control
0.8724121313	semi implicit
0.8724057602	cramer rao
0.8723765777	bilateral filter
0.8723524126	dynamic reconfiguration
0.8723460880	flat panel
0.8722242015	cfo estimation
0.8721903785	equality constraints
0.8721747027	pilot symbols
0.8721734859	pattern formation
0.8721615310	adaptive neuro fuzzy inference system anfis
0.8721544553	remote user authentication
0.8721427053	dna computing
0.8721197105	digital image
0.8721138708	deep submicron
0.8720991789	multicriteria decision making
0.8720387157	natural numbers
0.8719891126	travel times
0.8719648738	residue number
0.8719523761	markov models
0.8719106956	nonlinear systems
0.8718872881	road network
0.8718284839	transaction processing
0.8718258009	moving object detection
0.8717727197	prior knowledge
0.8717019704	multicriteria decision
0.8716971545	motion sickness
0.8716960185	protein structures
0.8716682498	shared task
0.8716560151	gas flow
0.8716490722	oblivious routing
0.8715967959	partially reconfigurable
0.8715895926	channel selection
0.8715712981	algebraic equations
0.8715707807	decimal floating point
0.8715516897	wyner ziv
0.8715501332	replicator dynamics
0.8715231958	web servers
0.8714721543	sense disambiguation
0.8714682354	kernel regression
0.8714444744	negatively correlated
0.8714208346	programming languages
0.8714192862	complex networks
0.8713907166	runge kutta
0.8713841584	chosen plaintext
0.8713669890	leader follower
0.8713594284	phase locked loops
0.8713526120	score level fusion
0.8713317405	predictor corrector
0.8713176462	sql statements
0.8712917210	cohen grossberg
0.8712850265	signed distance
0.8712675877	guest editorial
0.8712658199	inter carrier interference ici
0.8712631603	workflow management
0.8712429154	software agents
0.8712224177	noise figure
0.8712152030	fuzzy rough sets
0.8712054022	computational thinking
0.8712042448	event processing
0.8711680492	network layer
0.8711223939	outdoor scenes
0.8711220454	word segmentation
0.8711154944	statistical learning theory
0.8710865500	audio signals
0.8710515740	multiple access interference mai
0.8710492707	probability density
0.8710225943	route optimization
0.8710219045	image quality assessment
0.8710197224	interference channel
0.8709990112	cayley graph
0.8709960321	gas sensors
0.8709887910	memory footprint
0.8709733661	omni directional
0.8709531386	transport protocol
0.8709383082	level set
0.8709340357	linear elasticity
0.8709326685	underwater sensor networks
0.8709283127	hidden layer
0.8709110063	probability distribution
0.8708869713	user participation
0.8708426724	tag recommendation
0.8708378955	water filling
0.8708370621	short message service
0.8707889379	data aggregation
0.8707539557	markov chain model
0.8707468974	scientific literature
0.8707321033	kd tree
0.8707300060	united kingdom
0.8707206152	power factor
0.8707122082	case based reasoning
0.8706951940	grey matter
0.8706613898	quantization error
0.8706357494	multiple antenna
0.8706257636	routing table
0.8706116035	distance learning
0.8706062613	indian languages
0.8706004172	chance discovery
0.8705945072	hidden terminals
0.8705884717	schema evolution
0.8705526888	image classification
0.8705350059	document summarization
0.8704985404	resting state
0.8704492647	surface tension
0.8704447463	human motion
0.8704248626	timing analysis
0.8703953526	metric space
0.8703856946	signcryption scheme
0.8703757519	health records
0.8703480309	document classification
0.8703221990	radio channels
0.8702587256	ieee 80211g
0.8702399438	relay networks
0.8702339015	automatic repeat request
0.8702287281	text messaging
0.8702122656	single stage
0.8701662477	image deblurring
0.8701588306	educational games
0.8700502958	sar image
0.8700359001	field effect transistors
0.8700076951	domain decomposition
0.8699939311	ldpc decoding
0.8699923823	white light
0.8699847624	genome annotation
0.8699191941	service management
0.8699074889	cross sections
0.8698991150	singular value decomposition svd
0.8698962995	decision support system dss
0.8698677732	sparse matrix
0.8698498825	list decoding
0.8698421244	direct conversion
0.8698218170	ieee 80211n
0.8697461219	scientific publications
0.8697233148	blind watermarking
0.8697190502	color images
0.8696927497	graphical models
0.8696886734	ict adoption
0.8696795878	phy layer
0.8696614930	random number generation
0.8696580560	memetic algorithms
0.8696434593	artificial immune system ais
0.8696330461	geodesic distances
0.8695984734	multi level
0.8695870682	matrix vector multiplication
0.8695449753	intensive care
0.8695339418	national science foundation
0.8695289028	living lab
0.8695137335	interference channels
0.8695069129	loose coupling
0.8694935845	polynomial chaos
0.8694876437	noise removal
0.8694831662	linear precoding
0.8694629919	triangular fuzzy numbers
0.8694420946	digital circuits
0.8694240867	object segmentation
0.8694085031	transmit power
0.8694015496	wall climbing
0.8693686789	magnetic flux
0.8693681027	agent oriented software engineering
0.8693584096	carrier phase
0.8693386775	iterated local search
0.8693171942	camera pose
0.8693046266	eeg recordings
0.8692986614	phase modulation
0.8692885095	information hiding
0.8692563701	neighbourhood search
0.8692493695	pi controllers
0.8692435810	facial feature
0.8692410846	triangle free
0.8692352686	embodied interaction
0.8692251411	computational chemistry
0.8691654727	global asymptotic stability
0.8691614389	independent set
0.8691471947	upper bound
0.8691312307	burst loss
0.8691026847	qos provision
0.8690885361	cpu utilization
0.8690851178	false alarms
0.8690800229	point sets
0.8690693747	multiple access interference
0.8690641006	multiple access channels
0.8690621141	multicore platforms
0.8690097398	charge transfer
0.8689948323	mixed integer linear programming milp
0.8689408031	fast fading
0.8688822749	classical logic
0.8688770469	large margin
0.8688742807	human machine interface
0.8688597489	microarray datasets
0.8688563078	dynamic source routing
0.8688264254	influencing factors
0.8688123826	bang bang
0.8687864312	autonomous mobile robot
0.8687856977	convex sets
0.8687668445	multi user mimo
0.8687373188	application programming interface
0.8687368758	diversity multiplexing tradeoff
0.8687176192	multi label
0.8686770373	functional genomics
0.8686757905	regulatory networks
0.8686666814	peer selection
0.8686451738	data center
0.8686334782	memetic algorithm
0.8686171213	qos guarantee
0.8686157263	ego motion
0.8685854620	boolean algebra
0.8685853199	linear interpolation
0.8685825353	optimal stopping
0.8685527099	clock jitter
0.8685405884	decision rules
0.8684872977	web services composition
0.8684669126	ds uwb
0.8684360738	laser beam
0.8684190253	heterogeneous wireless
0.8683976998	multiprocessor systems
0.8683739425	working memory
0.8683692408	frequency dependent
0.8683631592	tomography ct
0.8683490828	position estimation
0.8683360517	fuzzy rules
0.8683072227	minimum degree
0.8682956492	motif finding
0.8682875370	end effector
0.8682833794	mobile communication
0.8681941559	multi agent systems
0.8681371470	reduced complexity
0.8681210134	skyline query
0.8681165951	competitive advantage
0.8680535995	digital image processing
0.8680519674	linear matrix inequalities lmis
0.8680440882	remotely sensed images
0.8679959649	computation tree logic
0.8679712749	achievable throughput
0.8679461900	fundamental frequency
0.8679096649	admission control cac
0.8678772391	statistical physics
0.8678772181	test bed
0.8678670304	plane wave
0.8678614210	incomplete information
0.8678438062	software reliability
0.8678283858	remote sensing imagery
0.8677438012	bounding boxes
0.8677289201	gene set
0.8677107485	formal languages
0.8676962873	university students
0.8676883502	multimedia applications
0.8676166978	section iii
0.8676106606	program committee
0.8675914305	cortical thickness
0.8675895274	moores law
0.8675338821	scan chains
0.8675248916	hamilton cycles
0.8674926145	extrinsic information transfer exit
0.8674869776	thermal management
0.8674783962	ontology alignment
0.8674699921	wavelet based
0.8674650247	respiratory motion
0.8674628530	dynamic environments
0.8674456733	gender classification
0.8674249758	random oracle
0.8674244392	multi agent system mas
0.8673789927	data acquisition
0.8673712106	software evolution
0.8673644796	clock frequency
0.8673211231	massively multiplayer online
0.8673107352	adaptive filter
0.8673030038	cyclic codes
0.8672942342	fitness function
0.8672811441	emergency management
0.8672568278	reed muller
0.8672460756	state dependent
0.8672435435	fisher discriminant
0.8672191460	werden konnen
0.8671996850	water supply
0.8671950360	state feedback
0.8671933179	dv hop
0.8671626766	satellite remote sensing
0.8671411704	cardiovascular diseases
0.8671293442	biochemical reactions
0.8670960268	finite difference schemes
0.8670705604	binding affinity
0.8670647995	contrast enhanced
0.8670639951	natural disasters
0.8670628576	missing values
0.8670487431	graphics processing unit
0.8670479853	vision based
0.8669305391	ofdma systems
0.8669283290	fixed parameter tractable
0.8668965304	clock skew
0.8668680531	protein ligand
0.8668618121	grid services
0.8668537964	protein complexes
0.8668487979	outer loop
0.8668248513	web documents
0.8668012688	remote laboratory
0.8667880489	fuel cells
0.8667527168	flexible job shop scheduling
0.8667376761	joint source channel coding
0.8667291330	cross domain
0.8667188315	cognitive radio network
0.8667152168	wireless links
0.8666922655	performance evaluation
0.8666497557	interval valued fuzzy
0.8666364201	quasi cyclic ldpc
0.8666260429	comparative genomics
0.8666146385	abelian group
0.8666130555	noisy channels
0.8665690644	prediction error
0.8665674914	high definition video
0.8665674813	data transfer
0.8665545823	iterative water filling
0.8665035599	feedback linearization
0.8664866343	orthogonal frequency division
0.8664532461	feature space
0.8664420209	critical infrastructure
0.8664275089	anterior cingulate cortex
0.8664269437	channel capacity
0.8664067866	line signature verification
0.8663824445	origin destination
0.8663663731	semantic wikis
0.8663568370	inventory control
0.8663501897	boltzmann equation
0.8663305587	international conference
0.8663304391	mobile applications
0.8662040335	model checker
0.8661833569	speaker adaptation
0.8661825139	indoor location
0.8661577957	pattern generation
0.8661127646	frontal cortex
0.8660740556	routing scheme
0.8660496964	entity ranking
0.8660269136	conjunctive queries
0.8660037126	stokes equations
0.8659993740	gate oxide
0.8659789544	load torque
0.8659685341	patient monitoring
0.8659614378	bezier curves
0.8659345231	perceptual quality
0.8659206875	medical image segmentation
0.8659123990	hierarchy process ahp
0.8659106212	lessons learnt
0.8659016130	lie groups
0.8658742682	wavelength conversion
0.8658534673	voltage scaling
0.8657849130	greedy routing
0.8657377963	pareto dominance
0.8656998126	hsv color
0.8656844578	orthogonal codes
0.8656789941	moment generating function mgf
0.8656676901	grid environment
0.8656586929	carrying capacity
0.8656377775	legged robot
0.8656236872	gabor transform
0.8656177083	distributed systems
0.8656091457	robot path planning
0.8655965361	max margin
0.8655932470	gate level
0.8655876097	driver assistance systems
0.8655707308	parallel programs
0.8655679893	collaborative design
0.8655607773	product life cycle
0.8655330795	strictly positive
0.8655241145	mobile learning
0.8655216170	thermal aware
0.8655144556	log normal shadowing
0.8655112061	financial distress prediction
0.8655048661	elliptic equations
0.8655006079	long term
0.8654743239	wind energy
0.8653817954	scheduling policy
0.8653767459	low temperature
0.8653416768	selection strategy
0.8653029169	pso algorithm
0.8653011830	effort estimation
0.8652814772	frequent pattern
0.8652486403	free form
0.8652361705	digital cinema
0.8652308642	equivalence relation
0.8652117603	educational game
0.8652031933	fine grained
0.8651824406	multiple instance learning
0.8651738262	delay lines
0.8651537768	channel quality
0.8651433044	fuzzy c means fcm
0.8651137761	acoustic echo
0.8651088548	bi objective
0.8650202480	contour extraction
0.8650021230	sparse signal
0.8650008235	low pass filtering
0.8649729170	scalar quantization
0.8649688481	fixed parameter
0.8649430919	channel inversion
0.8649388361	reverberant environments
0.8649039373	iterative receiver
0.8649011796	upper bounds
0.8648927006	infinite words
0.8648336472	energy storage
0.8648311457	probabilistic model checking
0.8648265628	delay tolerant networks
0.8648110348	autonomous robot
0.8647880305	language processing
0.8647556423	pervasive computing environments
0.8647294328	dual tree complex wavelet transform
0.8647184534	formal specifications
0.8647090863	boundary condition
0.8647031594	biometric identification
0.8646509342	united states
0.8646432349	symbol error rate
0.8646431587	video transmission
0.8646348573	downlink multiuser
0.8646083935	composite services
0.8645943283	water resources
0.8645926731	phase shift
0.8645879441	reconfigurable architecture
0.8645712004	black scholes
0.8645696964	wireless multimedia sensor networks
0.8645652453	optical fibers
0.8645545427	active vision
0.8645396264	semi supervised learning
0.8644403526	hydrogen bonds
0.8644127627	public transport
0.8643952085	continued fraction
0.8643837714	cellular network
0.8643640371	aerial vehicle
0.8643600913	worst case execution time wcet
0.8643435922	hamilton jacobi bellman
0.8643086166	ambient intelligent
0.8643029072	bit interleaved coded modulation
0.8642946068	social software
0.8642636485	mel frequency cepstral
0.8642632707	feature matching
0.8642595267	slot assignment
0.8642077819	wireless networking
0.8641976435	query evaluation
0.8641921301	professional development
0.8641585185	step size
0.8641317966	resource utilization
0.8641261585	output regulation
0.8641049391	auto correlation
0.8640474034	massively multiplayer
0.8640195484	urban planning
0.8639374140	inverted index
0.8639288013	order quantity
0.8638765093	constraint solving
0.8638643813	3gpp lte
0.8637772947	human robot
0.8637680202	visual servo
0.8637382695	online handwritten
0.8637374141	sat solving
0.8637181765	kernel density
0.8636994855	false positive rate
0.8636765924	passive microwave
0.8636625436	human perception
0.8636535280	bit plane
0.8636302056	level dependent bold
0.8635945337	shape matching
0.8635667992	true positive
0.8635339692	slow convergence
0.8635127365	secret image
0.8634912897	switching frequency
0.8634253657	quadrature amplitude modulation qam
0.8633890401	bayes risk
0.8633843552	air traffic
0.8633314349	body area network
0.8633208587	online games
0.8632950845	ip core
0.8632943120	malicious attacks
0.8632893183	copy number
0.8632250011	double sided
0.8632210581	platform independent
0.8632114206	electron density
0.8631917381	dependency graph
0.8631800461	qos support
0.8631431555	service quality
0.8631411470	banach space
0.8631369678	microarray gene expression
0.8631158577	speech processing
0.8631061682	multi criteria
0.8630810233	single input single output
0.8630588489	legged robots
0.8630530361	image based rendering
0.8629968308	ontology driven
0.8629890630	semi lagrangian
0.8629644905	multipath fading
0.8629600222	scaling mds
0.8629459775	packet loss probability
0.8629432675	image collections
0.8629331309	general purpose processors
0.8628386141	modeling languages
0.8628261813	xml databases
0.8628052454	spoken dialogue systems
0.8627894792	markov model
0.8627891758	cutting stock
0.8627813424	matrix pencil
0.8627707008	additive white gaussian noise
0.8627695278	personal health
0.8627457835	proof theoretic
0.8627028289	min sum
0.8626391764	image recognition
0.8625832047	mc ds cdma
0.8625771947	dynamic bayesian networks
0.8625650340	data hiding
0.8625642883	source coding
0.8625333596	latent semantic
0.8625328516	wdm optical
0.8625084777	object oriented software
0.8624859939	learning environments
0.8624726979	xilinx virtex
0.8624504381	multimodal interaction
0.8624393330	principle component analysis pca
0.8624265886	svm classifiers
0.8624186434	security breaches
0.8623855848	password authenticated
0.8623709132	dimensional spaces
0.8623241317	linear complementarity
0.8622774801	single nucleotide polymorphisms
0.8622459575	subspace clustering
0.8622195378	single input single output siso
0.8621660998	artifact reduction
0.8621603499	proteinprotein interaction
0.8621531286	rejection ratio
0.8621440910	service level
0.8621390980	asset allocation
0.8621155565	mobile services
0.8620926824	motion control
0.8620873350	contact forces
0.8620607875	semantic technologies
0.8620358820	buffer size
0.8620261818	fall detection
0.8620121733	vendor selection
0.8619841380	information overload
0.8619818790	gossip protocols
0.8619805959	optical wireless
0.8619602248	uwb ir
0.8619310031	search space
0.8619271029	satellite communications
0.8619128627	banking industry
0.8619120201	inter symbol interference isi
0.8618591345	statistical inference
0.8618573865	high order
0.8618507099	word level
0.8618493268	dependency pair
0.8618478944	quantization parameter
0.8618187266	drug design
0.8618047138	rule bases
0.8617890423	software packages
0.8617590754	cell division
0.8617589590	perceptron mlp
0.8617518721	workflow execution
0.8617513883	topology preserving
0.8617286233	functional modules
0.8617280988	parallel coordinates
0.8617267833	directed acyclic graph
0.8617167144	ieee 80216j
0.8616847314	stability analysis
0.8616610908	random projection
0.8616492219	transcription factor binding
0.8616404605	read write
0.8616033399	architectural design
0.8615672245	takagi sugeno
0.8615601398	ieee 80211e
0.8615528339	multi input multi output mimo
0.8615371404	supply voltage
0.8615108550	visual saliency
0.8615060416	multiple criteria decision making
0.8614842414	euclidean space
0.8614471866	erasure codes
0.8614403481	cross layer design
0.8614392299	maximum flow
0.8614330211	aerial images
0.8614304465	multi hop relay
0.8614293011	plug ins
0.8614070929	multiple input single output miso
0.8613685469	virtual learning environments
0.8613445680	spoken dialog systems
0.8613392785	multi document summarization
0.8612948369	long lived
0.8612782182	functional units
0.8612721461	cache hit
0.8612719563	online auctions
0.8612503272	selection combining
0.8612192337	power electronics
0.8612064489	kernel functions
0.8612057051	lock free
0.8612045807	configuration management
0.8612043648	wild type
0.8611756449	statistical tests
0.8611662404	wyner ziv coding
0.8611285901	ghz band
0.8610952663	joint torque
0.8610875836	scientific research
0.8610835203	health information
0.8610497375	conceptual modelling
0.8610059782	dual rail
0.8610008367	fast fading channels
0.8609930586	random matrix theory
0.8609852833	power plants
0.8609831897	high capacity
0.8609736683	preimage attack
0.8609658595	social psychology
0.8609572837	complementary metal oxide semiconductor cmos
0.8609327281	control charts
0.8609306324	user acceptance
0.8609252759	turn taking
0.8609236238	angular momentum
0.8609187380	cognitive radio systems
0.8608616508	selection algorithm
0.8608418264	normal forms
0.8608190527	6t sram
0.8607433107	replacement policy
0.8607192556	intra frame
0.8607004529	general purpose
0.8606946224	cash flow
0.8606833369	video encoder
0.8606580326	pixel wise
0.8605389889	message logging
0.8605344450	geodesic distance
0.8605263058	ring signature
0.8605231966	cross organizational
0.8605137333	local area network
0.8605099414	network intrusion detection
0.8604913029	motor drive
0.8604721989	strategic alignment
0.8604714977	bit rates
0.8604691884	rich media
0.8604624378	software package
0.8604507916	ieee 80211b
0.8604149892	fokker planck
0.8604115544	protein sequences
0.8603725208	cable driven
0.8603389539	bit rate
0.8603190570	robust control
0.8602660626	machine readable
0.8602220191	distance measures
0.8602062520	low pass filter
0.8601512695	relative error
0.8601445091	false negatives
0.8601440907	error prone
0.8601248856	mobility support
0.8601119960	frequency division multiple access
0.8601119123	successive interference cancellation sic
0.8600907175	regime switching
0.8600888247	protein protein interaction
0.8600739004	biologically plausible
0.8600724660	robot assisted
0.8600574943	software engineers
0.8600121383	language acquisition
0.8599963517	geographic information system gis
0.8599584956	bold signal
0.8598584203	human actions
0.8598529438	portfolio management
0.8598527762	personal identification
0.8598488659	smith waterman
0.8598336841	largest eigenvalue
0.8597969266	spectrum usage
0.8597802016	power dissipation
0.8597721566	affine transformations
0.8597204415	weak classifiers
0.8597151014	schedulability analysis
0.8596902706	correlation zone
0.8596410221	cache partitioning
0.8596060799	fixed point theorems
0.8595962768	tightly coupled
0.8595342263	heat kernel
0.8595290102	evolutionary optimization
0.8595276849	decoding complexity
0.8595269128	input voltage
0.8595214423	geographically dispersed
0.8595210437	dirty paper
0.8595077456	product line engineering
0.8594966950	predictive coding
0.8594900510	bit streams
0.8594898007	sram cell
0.8594537459	fair exchange
0.8594428757	epidemic routing
0.8594392031	status quo
0.8594251660	learning environment
0.8594200560	social norms
0.8594186783	twig pattern
0.8593934472	range query
0.8593923926	pair wise
0.8593871500	authentication protocols
0.8593146393	xml data
0.8593128428	vibration isolation
0.8592983082	texture classification
0.8592545184	chinese character
0.8592036146	edge disjoint
0.8591935422	topological relations
0.8591344631	global navigation satellite
0.8590695704	equal error rate eer
0.8590610154	tree search
0.8590361132	conceptual modeling
0.8590350015	ground plane
0.8590156407	edge coloring
0.8590121991	fp growth
0.8590077139	domain adaptation
0.8590074326	virtual organization
0.8589419850	integro differential
0.8589396558	soft output
0.8589215260	low density
0.8588884692	weighted averaging
0.8588626251	assembly line balancing
0.8588593896	free space
0.8588569291	human motion capture
0.8588526318	approximate dynamic programming
0.8588379071	protocol stack
0.8588212847	mental states
0.8587909304	reverberant speech
0.8587578837	decision table
0.8587481034	mobile robot navigation
0.8587049881	virtual agents
0.8587015958	frequency division multiplexing
0.8586800907	access networks
0.8586798064	program verification
0.8586539138	ieee 80216m
0.8586293495	quantization noise
0.8586028724	duty cycling
0.8585639425	current mirror
0.8585479908	streaming media
0.8585308423	parameter identification
0.8585290493	ad hoc track
0.8585148126	variation tolerant
0.8585079697	data assimilation
0.8584976512	high performance
0.8584204701	stochastic dominance
0.8583415981	post mortem
0.8583264661	frontal gyrus
0.8583192478	technology acceptance
0.8582943038	traffic congestion
0.8582927442	discontinuous galerkin methods
0.8582878596	probability distributions
0.8582859657	ad hoc wireless networks
0.8582810623	force fields
0.8582533512	smart cameras
0.8582364168	field programmable gate arrays
0.8582199201	protein interactions
0.8581870755	stem cell
0.8581785997	premature convergence
0.8581564732	semi structured
0.8581401399	symbolic model checking
0.8581301968	human gait
0.8580781882	lookup tables
0.8580724057	planar graph
0.8580469809	digital filter
0.8580322046	desktop grids
0.8579923071	mathematical expressions
0.8579792181	global positioning system gps
0.8579560551	outage probabilities
0.8579182677	fur die
0.8579131655	domain knowledge
0.8579030304	price competition
0.8579016966	single channel
0.8578444632	voltage controlled oscillator
0.8578270017	supervised machine learning
0.8578229860	constrained optimization problems
0.8578216496	mobile node
0.8578144188	liver disease
0.8578135146	variable bit rate
0.8577880926	restricted boltzmann
0.8577813891	multi channel
0.8577582329	note taking
0.8577539438	peer assisted
0.8577295571	sat instances
0.8576941137	topic maps
0.8576701493	fractional anisotropy
0.8576648628	keyword query
0.8576628942	slepian wolf coding
0.8575893187	lempel ziv
0.8575872037	large scale
0.8575550407	age estimation
0.8575160076	missing data
0.8575045784	retinal images
0.8574701099	direct torque
0.8574692398	wireless ad hoc network
0.8574522426	image guided
0.8573768089	high sensitivity
0.8573724114	brain mr images
0.8573683577	edge detector
0.8573634265	fault trees
0.8573250382	cross language
0.8573236310	autonomous robots
0.8572940476	protein function prediction
0.8572692465	speaker clustering
0.8572227661	background clutter
0.8572144265	knowledge intensive
0.8571994072	affective states
0.8571565580	spectrum handoff
0.8571382990	branch prediction
0.8571232838	data driven
0.8570761832	analytic network process
0.8570627059	geo referenced
0.8570008871	integrated development environment
0.8569009676	orthogonal space time block codes
0.8568947994	domination number
0.8568528005	decay rate
0.8568520826	sequential circuits
0.8568301608	rateless codes
0.8568227902	lossless coding
0.8568176961	remote sensing data
0.8567768531	single antenna
0.8566952268	higher order statistics
0.8566902867	storage systems
0.8566772223	vector space model
0.8566594020	lens distortion
0.8565955364	event logs
0.8565919248	location tracking
0.8565871966	ecg signals
0.8565727727	model checkers
0.8565569257	gauss newton
0.8565414602	loss functions
0.8565124987	subject matter
0.8564907986	traffic monitoring
0.8564808613	crossing number
0.8564803864	cramer rao lower bound
0.8564720617	minority class
0.8564673433	disaster management
0.8564362732	hand drawn
0.8564243067	pervasive environments
0.8563958441	fast mode decision
0.8563794468	timing jitter
0.8563763595	array antenna
0.8563705397	minor free
0.8563603397	entity relationship
0.8563207702	storage devices
0.8562983393	disk io
0.8562801555	multiple linear regression
0.8562375845	image quality
0.8561816270	spatially distributed
0.8560730176	multiple input multiple output
0.8560091505	healthy controls
0.8560037611	competitive ratio
0.8559989717	soft handover
0.8559518975	data warehousing
0.8559480078	random fields
0.8559217593	virtual humans
0.8559156404	gamma band
0.8558471326	subjective evaluation
0.8558380845	language modeling
0.8557895724	functional requirements
0.8557624526	online gaming
0.8557483601	tcp friendly
0.8556983046	battery powered
0.8556521960	dans les
0.8556478145	multi cell
0.8556457514	mobile robotics
0.8556429296	structure activity relationship
0.8555519787	generalized eigenvalue
0.8555126082	wormhole attacks
0.8555086384	impulse responses
0.8554969521	aware scheduling
0.8554929053	software architectures
0.8554800951	surveillance video
0.8554610043	handoff latency
0.8554536033	label switching
0.8554494079	mobile multimedia
0.8554115960	simultaneous localization and mapping slam
0.8554114004	intrinsic motivation
0.8553463611	development process
0.8553316709	image sequence
0.8553269325	traffic grooming
0.8553086236	hd video
0.8553065734	solder joints
0.8553024259	adaptive control
0.8552973622	sliding surface
0.8552870952	authorization policies
0.8552854134	lp relaxation
0.8552737330	concrete syntax
0.8552702330	nonlinear dynamical systems
0.8552683004	rna secondary
0.8552628946	delayed feedback
0.8552128332	intra coding
0.8551926144	face verification
0.8551544130	soft input soft output
0.8551348256	speech signals
0.8551284060	data structures
0.8551239710	trust establishment
0.8550839034	null space
0.8550818823	crowd simulation
0.8549707986	log normal
0.8548715939	video annotation
0.8548408150	pressure sensor
0.8548259157	citation impact
0.8548206052	decision makers
0.8548131799	emotional speech
0.8547938370	visual surveillance
0.8547911854	change management
0.8547819982	cross media
0.8547640756	embedded processor
0.8547632934	virtual community
0.8547591309	queueing network
0.8547389808	partially observable markov decision process
0.8546721031	personalized services
0.8546264134	short time fourier transform
0.8546208439	content addressable
0.8545959570	memoryless channels
0.8545944311	multimodal interfaces
0.8545879358	secure communication
0.8545404848	internet services
0.8545215423	arithmetic operations
0.8545131840	smart camera
0.8545061618	handwritten chinese
0.8545005168	poisson process
0.8544364523	multispectral images
0.8543885581	optimum power allocation
0.8543771853	english language
0.8543685777	packet delivery
0.8543670403	qc ldpc codes
0.8543612485	secondary education
0.8543530250	selection scheme
0.8543385803	predictive controller
0.8543384539	sensor readings
0.8543170280	formal proof
0.8543121005	heart sound
0.8543086199	pattern discovery
0.8542697768	delay dependent
0.8542182227	circular arcs
0.8541938637	successive approximation
0.8541827022	packet header
0.8541710401	multiprocessor scheduling
0.8541630254	camera motion
0.8541514637	driving simulator
0.8541387187	quasi cyclic
0.8541211934	cross talk
0.8540840471	point spread function
0.8540819039	lattice boltzmann method
0.8540625183	cruise control
0.8540616825	encryption scheme
0.8540305902	noise cancellation
0.8540236361	quantum computation
0.8539524379	pareto optimal solutions
0.8539190881	steiner tree problem
0.8538916083	conversational agent
0.8538717378	pd controller
0.8538322335	test collection
0.8538195440	unlabeled examples
0.8537829900	ieee 802154a
0.8537745544	spectrum utilization
0.8537667172	h264avc video
0.8537464607	action selection
0.8537425440	replica exchange
0.8537179393	computing environments
0.8537145129	semantic descriptions
0.8536758356	nous proposons
0.8536692759	rule based
0.8535809047	lower bound
0.8535742337	production inventory
0.8535451405	short reads
0.8535160332	state space explosion
0.8534885752	guest editors introduction
0.8534596208	clique width
0.8534419700	nearest neighbor classifier
0.8534064483	todays internet
0.8533736729	ieee 80216e
0.8533683904	thermal conductivity
0.8533403335	color space
0.8533386234	concept detection
0.8533296471	random linear network coding
0.8533161620	evolutionary programming
0.8532911405	fuzzy linguistic
0.8532822564	average cost
0.8532819694	sketch recognition
0.8532788758	polar coordinates
0.8532582568	execution traces
0.8532555249	gaze direction
0.8532480502	multiclass classification
0.8532277279	block size
0.8531566378	group membership
0.8531343819	session key
0.8531222395	ensemble classifier
0.8530401793	wall shear stress
0.8529977712	armed bandit
0.8529604190	imbalanced data sets
0.8529433084	mobile hosts
0.8528911846	audio coding
0.8528872428	video stream
0.8528543839	sum rate maximization
0.8528217387	collaborative tagging
0.8527893229	integro differential equations
0.8527019803	genre classification
0.8526931423	cmos circuits
0.8526524194	vehicle detection
0.8526514326	user friendly
0.8526359047	resonance frequency
0.8526279024	lip reading
0.8525815885	robust stabilization
0.8525456162	environmental protection
0.8525266734	jamming attacks
0.8525011288	open innovation
0.8524694396	generalized likelihood ratio
0.8524596651	context free languages
0.8524580248	nano scale
0.8524203130	cooperative caching
0.8523178166	linear logic
0.8523041846	morphological operators
0.8522738528	arc routing
0.8522405706	diffie hellman assumption
0.8522378490	sparse graphs
0.8522148777	secure multi party computation
0.8522042544	memory accesses
0.8521279963	fuzzy rule based
0.8521241242	mutation operators
0.8521157679	influence diagrams
0.8521025360	personal digital assistants
0.8520988093	ontology based
0.8520670453	chemical compounds
0.8519984054	handwritten documents
0.8519860672	mutation testing
0.8519571288	sixth order
0.8519305421	compute unified device architecture cuda
0.8519304068	wide frequency range
0.8519165095	multi source
0.8519146336	test driven development
0.8518649740	gray scale
0.8518301324	notch filter
0.8518286211	division multiplexed
0.8518028247	reference point
0.8517645024	ontology matching
0.8517393770	motion detection
0.8517250806	false positives
0.8516805035	learning outcomes
0.8516716368	ontology mapping
0.8516631928	single event
0.8516625303	underwater vehicle
0.8516601546	algebraic geometry
0.8516493004	uci repository
0.8515970576	small screen
0.8515732313	packet delay
0.8515472273	game development
0.8515437989	fixed size
0.8515422794	max cut
0.8515393356	variation aware
0.8515297936	control plane
0.8515145591	physical design
0.8515076951	qos constraints
0.8515073383	multi tier
0.8515009962	claw free graphs
0.8514542697	trust region
0.8514387767	disjoint union
0.8514222740	term rewriting systems
0.8514199193	educational institutions
0.8514121217	digital video
0.8514071220	population size
0.8514030690	user centred design
0.8513705152	video coding standard
0.8513646042	transmission range
0.8513548357	direct product
0.8513453587	ims learning design
0.8513273487	set membership
0.8513088869	series parallel
0.8512865585	wireless transmission
0.8512793019	sign language recognition
0.8512683914	mixture model
0.8512453114	social interactions
0.8512449301	interval valued intuitionistic fuzzy
0.8512317481	decision diagram
0.8512068626	fault recovery
0.8510988309	set theory
0.8510923696	fp tree
0.8510688450	group key agreement
0.8510501507	multi touch
0.8510374963	pursuit evasion
0.8510091583	depth maps
0.8509825108	video codecs
0.8509665488	signal subspace
0.8509360919	content delivery networks
0.8509277479	developing country
0.8509225929	key frame
0.8508705779	natural phenomena
0.8508635664	group key management
0.8507889177	fuzzy logic control
0.8507386637	decision theory
0.8507266011	random field
0.8506902869	business process modelling
0.8506872815	ideal solution
0.8506734694	power plant
0.8506523528	journal impact
0.8506149530	illumination conditions
0.8505837071	design pattern
0.8505409913	unmanned aerial
0.8505370625	oriented programming
0.8505097719	control flow graph
0.8504840175	bug reports
0.8504811899	t1 weighted
0.8504701138	multimedia broadcasting
0.8503561096	water molecules
0.8503353271	genome sequencing
0.8503342878	fiber tracking
0.8503298004	error diffusion
0.8503214581	fuzzy analytic hierarchy process
0.8503153484	latent class
0.8502976321	stochastic differential equation
0.8502940809	markov logic
0.8502796324	spreading codes
0.8502604967	output voltage
0.8502590901	image analysis
0.8502340247	section ii
0.8502223864	mimo broadcast channel
0.8502047162	envy free
0.8501898031	cross border
0.8501693277	user groups
0.8501655515	semi infinite programming
0.8501595601	joint source channel
0.8501336689	block length
0.8500946377	cross platform
0.8500755622	nelder mead
0.8500277468	defect prediction
0.8500163918	color image segmentation
0.8499916847	distributed shared memory
0.8499825057	copy detection
0.8499563357	path diversity
0.8499501254	microarray experiments
0.8499460808	factory automation
0.8499285033	occipital cortex
0.8499046931	bent functions
0.8498745105	amino acid sequences
0.8498684376	parent child
0.8498563462	gaussian processes
0.8498251897	ultra low voltage
0.8498230116	churn prediction
0.8498105003	parity check matrices
0.8497564451	common subsequence
0.8497271841	levenberg marquardt
0.8497109956	feed forward neural networks
0.8496958409	interestingness measures
0.8496645362	multi user
0.8496438975	smart antenna
0.8496385826	socio cultural
0.8496352551	relay nodes
0.8496148754	event related
0.8496122623	pspace complete
0.8496104277	evidence theory
0.8495916974	low cost
0.8495376830	ism band
0.8495202981	frequency selective fading
0.8494812369	radial basis function network
0.8494237979	policy makers
0.8493965604	biological pathways
0.8493706853	dynamic epistemic logic
0.8493489864	information processing
0.8493220272	formation control
0.8493113347	web interface
0.8492889039	current mode
0.8492087658	error bound
0.8492034202	multiple description
0.8491945253	springer verlag
0.8491928230	biomedical engineering
0.8491891261	navierstokes equations
0.8491800207	multi robot
0.8491707053	urban traffic
0.8491481916	received signal strength indicator
0.8491122027	packet processing
0.8490596334	wireless body area networks
0.8490508736	statistical shape
0.8490201732	social computing
0.8490061067	maximum likelihood estimates
0.8489827557	wavelet domain
0.8489048915	distributed storage
0.8488766696	functional annotation
0.8488726517	constant factor approximation
0.8488672916	online analytical processing
0.8488344521	user interests
0.8488242837	active contour model
0.8487802665	moving obstacles
0.8487550765	uci machine learning repository
0.8487192187	document image
0.8487149677	knapsack problems
0.8487069058	mixed integer linear
0.8487057682	single instruction multiple data
0.8486917374	scalable video
0.8486786991	legendre
0.8486711235	eigenvalue problem
0.8486547956	light field
0.8486217658	protein interaction
0.8486182138	hyperspectral imaging
0.8485905727	membrane computing
0.8485748513	success rate
0.8485542618	activation function
0.8485515050	data dissemination
0.8485262727	template protection
0.8484917787	semi definite programming
0.8484464315	kinetic energy
0.8484398038	server consolidation
0.8484312927	image representation
0.8484072444	blocking artifacts
0.8483916115	stochastic games
0.8483712757	high gain
0.8483642028	symmetric key
0.8483602536	hybrid systems
0.8483353946	belief functions
0.8483218866	discrete particle swarm optimization
0.8483081488	secondary path
0.8482326672	low energy
0.8482164160	transaction cost
0.8482157226	feature point
0.8481626919	induced subgraph
0.8481276524	feature vector
0.8480519910	finite difference time domain fdtd
0.8480060135	sensor deployment
0.8479868686	feature selection method
0.8479685684	robot localization
0.8479587786	power density
0.8479393964	greedy heuristic
0.8479305811	bounded disturbances
0.8479196202	community structure
0.8479060307	sleep scheduling
0.8478895759	digit recognition
0.8478811463	resolution enhancement
0.8478737810	error correcting code
0.8478722876	depth estimation
0.8478435615	human head
0.8477752171	fingerprint matching
0.8477665642	direct sequence code division multiple access
0.8476832888	state transitions
0.8476815804	interactive multimedia
0.8476604218	power supply noise
0.8476586363	texture analysis
0.8476374489	path delay
0.8476348796	fault management
0.8476019965	jones
0.8475975182	guest editors
0.8475918563	rewrite rules
0.8475835878	workflow engine
0.8475702511	wyner ziv video coding
0.8475651444	type theory
0.8475410210	digital cameras
0.8475195159	reynolds number
0.8474808718	snake robot
0.8474799617	linearly constrained
0.8474047774	internet service providers
0.8473781654	higher dimensional
0.8473217263	user requirements
0.8473192730	vector spaces
0.8473186688	wavelet bases
0.8473111849	receiver operating characteristic
0.8472789009	spectral reflectance
0.8472727736	persian
0.8472311448	zeta function
0.8472308205	answer sets
0.8472189270	blood oxygenation level
0.8472092045	search procedure
0.8471466285	divergence free
0.8471121448	static timing analysis
0.8471104643	fuzzy set
0.8470769285	uniform sampling
0.8470705623	trellis codes
0.8470584646	mining frequent
0.8470431634	linear program
0.8470357584	set covering
0.8470304390	emotional state
0.8470170213	complex systems
0.8470062657	cross layer optimization
0.8470056316	quantitative evaluation
0.8469843678	scan matching
0.8469624205	digital filters
0.8468840161	single layer
0.8468658351	message forwarding
0.8468273833	object manipulation
0.8468090772	unit selection
0.8467960017	motion tracking
0.8467394170	link adaptation
0.8467377189	temporal difference learning
0.8466698772	phrase based
0.8466308789	electron microscope
0.8465743752	word length
0.8465560160	collaborative editing
0.8465522787	lattice valued
0.8465509009	environmental impact
0.8465426464	disparity maps
0.8464854793	instantaneous frequency
0.8464679631	bei der
0.8464649714	statistical learning
0.8464226403	inferior parietal
0.8464192864	guest os
0.8463993652	cerebral blood
0.8463906884	hard decision
0.8463581052	space time block codes
0.8463351232	tamil
0.8463335904	content based retrieval
0.8463214531	test case
0.8463149361	queueing networks
0.8462409679	surgical planning
0.8462253180	malware detection
0.8461805885	structural equation model
0.8461465688	intersymbol interference isi
0.8461141063	human machine
0.8460961901	qos routing
0.8460882807	protein sequence
0.8460560432	kullback leibler
0.8460370689	optimization algorithm
0.8460103440	patent documents
0.8460051814	viewing angle
0.8460038901	geographic information
0.8460009964	learning management systems
0.8460001369	corner detector
0.8459844641	person identification
0.8458899153	error correcting output
0.8458633992	motor drives
0.8458520383	weighted average
0.8458503242	processing unit gpu
0.8458490931	execution environment
0.8458250930	rbf neural networks
0.8457915402	description languages
0.8457496602	lms algorithm
0.8457404893	connected component
0.8457317922	software components
0.8456851804	market share
0.8456139481	node failures
0.8456117567	single machine scheduling
0.8456021835	adaptive resonance theory
0.8455920865	load imbalance
0.8455588110	numerical optimization
0.8455402204	beam search
0.8455084226	multiplexing gain
0.8455059578	inferior frontal gyrus
0.8454999671	memory access
0.8454796695	power quality
0.8454746242	arrival process
0.8454554368	rule sets
0.8454438966	worst case
0.8454391691	rois
0.8454308044	line segments
0.8453828814	exact closed form expressions
0.8453343237	flight control
0.8453243632	siemens
0.8452750293	hmm based
0.8452708398	behavioral synthesis
0.8452541767	london
0.8452434653	statistical analysis
0.8452404762	target recognition
0.8452293510	coloured petri
0.8452283510	riemann
0.8452103501	negative feedback
0.8452051756	control channel
0.8451599913	user profiling
0.8451187238	quantum computers
0.8451061323	working group
0.8451046736	en la
0.8450442078	model transformations
0.8450436091	root mean square error rmse
0.8449932716	colored noise
0.8449860553	americans
0.8449812106	optimization problems
0.8449704896	cluster based
0.8449541480	netherlands
0.8448942905	medical devices
0.8448696874	denmark
0.8448657372	multi objective evolutionary algorithms
0.8448221692	fourier domain
0.8447703846	free energies
0.8447672538	differential expression
0.8447630723	ubiquitous computing environment
0.8447623410	fourier coefficients
0.8447465854	peter
0.8447428088	conflict free
0.8447289584	channel equalization
0.8447134880	donation
0.8446970748	exponential synchronization
0.8446908882	quantum mechanical
0.8446817440	focal point
0.8446806894	everyday life
0.8446498124	fourier series
0.8446405171	security requirements
0.8446398725	huffman
0.8445957341	logic synthesis
0.8445870532	learning objects
0.8445462919	variational iteration method
0.8445321112	application specific
0.8445103974	multiple criteria
0.8444891793	energy detector
0.8444798361	enhancement layer
0.8444750792	clifford
0.8444338546	single input multiple output
0.8443805245	dual core
0.8443022470	motion capture data
0.8442975573	corner detection
0.8442961746	bit interleaved coded
0.8442733263	cross sectional
0.8442585593	object category
0.8442466581	intra operative
0.8442407392	text line
0.8442297536	web based
0.8442099353	evolutionary multi objective optimization
0.8442091331	minimum description length
0.8441957707	shift registers
0.8440784895	curve evolution
0.8440557481	force control
0.8440483354	secret sharing schemes
0.8440367211	routing metric
0.8440113841	local optima
0.8440064028	nearest neighbor queries
0.8439912377	impedance control
0.8439785685	device driver
0.8439759271	impact factor
0.8439602979	mesh generation
0.8439073924	bit stream
0.8439065391	bezier
0.8439027135	wireless sensors
0.8438934998	berkeley
0.8438893782	p2p systems
0.8438692137	stochastic simulation
0.8438513310	brain areas
0.8438360010	application specific instruction set
0.8438180390	locked loop
0.8437829260	fibonacci
0.8437547351	multiplayer online games
0.8437423332	shanghai
0.8437069805	resource selection
0.8436998860	cancer classification
0.8436956871	wavelength converters
0.8436815015	instructional design
0.8436622473	theoretical foundations
0.8436603013	semidefinite program
0.8436278956	queue lengths
0.8436178036	information gathering
0.8436056620	barcelona
0.8435851624	multipath channel
0.8435681617	privacy aware
0.8435655031	singapore
0.8435646227	facial image
0.8435620958	short read
0.8435488652	cache coherence
0.8435392488	cyber physical
0.8435366141	sql server
0.8434506425	schedule length
0.8433665708	nanometer scale
0.8433512165	king
0.8433182227	modelling language
0.8432693039	solar cell
0.8432655520	automorphism group
0.8432378118	robot vision
0.8431822005	special session
0.8431561434	sar imaging
0.8431470672	neyman pearson
0.8431370446	greedy randomized
0.8431366895	power savings
0.8431227946	prediction intervals
0.8431137101	cooperative games
0.8431023383	energy delay product
0.8430904838	turing test
0.8430683136	index terms
0.8430659252	application level
0.8430529694	graphics cards
0.8430442857	sagittal plane
0.8430164048	component based software engineering
0.8430139202	manufacturing systems
0.8429878651	uyghur
0.8429607461	channel estimator
0.8429517730	globally distributed
0.8429497027	closed sets
0.8429336502	number theoretic
0.8429279437	cis regulatory
0.8429272514	rom
0.8429262250	maxwell
0.8429233299	home agent
0.8428954401	cambridge ma
0.8428907955	feature weighting
0.8428857848	density based clustering
0.8428333123	closest point
0.8428245461	virtual human
0.8428063167	visible light
0.8427961507	intelligent vehicles
0.8427810961	cramer rao lower bound crlb
0.8427662933	homotopy perturbation method
0.8427308269	shortest path routing
0.8427123488	short term memory
0.8426392149	principle component analysis
0.8426389893	decision tables
0.8426355953	idea generation
0.8426354456	mediterranean
0.8426226401	survival analysis
0.8425602431	speech emotion recognition
0.8425538124	awgn channels
0.8424859899	ofdma based
0.8424540719	cost estimation
0.8424187288	continuously differentiable
0.8423835636	ml detector
0.8423615808	oxford
0.8423595368	cross section
0.8423513365	agile methods
0.8423512480	wireless channel
0.8423486758	genome wide association studies
0.8423347371	protein protein interactions
0.8423329121	tomlinson harashima
0.8423177293	virtual learning environment
0.8423129556	hardware accelerated
0.8423048451	space vector
0.8422929789	spectrum efficiency
0.8422919875	natural language generation
0.8422824175	online banking
0.8422506747	fuzzy controllers
0.8422381222	partially observed
0.8422310381	dynamic resource allocation
0.8422264710	building block
0.8422110107	morse
0.8421992655	text documents
0.8421943255	processing units gpus
0.8421799887	virtual enterprises
0.8421639532	garbage collectors
0.8421568658	gate count
0.8421508935	fault tree analysis
0.8421405031	martin
0.8421224130	turkey
0.8421182240	cellular systems
0.8421107035	graph grammar
0.8421085195	chip soc
0.8420876605	ontology engineering
0.8420846721	interior point method
0.8420231435	schur
0.8420135935	dual polarization
0.8420065410	decision directed
0.8419959327	flooding attacks
0.8419777682	fock
0.8419001272	regular graphs
0.8418309368	discrete mathematics
0.8417970238	long distance
0.8417886027	ncss
0.8417841749	extensible markup language
0.8417791559	digital audio
0.8417343788	inverse problems
0.8417305836	downlink capacity
0.8416753653	data compression
0.8416697941	social tagging systems
0.8416612906	buchi
0.8416477582	vlsi architecture
0.8416452709	constraint propagation
0.8416412640	performance measurement
0.8416209479	semantic role
0.8416127479	failure modes
0.8416116242	financial institutions
0.8415489255	mexico
0.8415457451	multi objective particle swarm optimization
0.8415346618	roman
0.8415143035	gale
0.8414777863	medical records
0.8414733767	background noise
0.8414244452	fuel economy
0.8414177029	log likelihood ratio
0.8414163634	user defined
0.8413070944	piecewise polynomial
0.8413020870	power distribution
0.8412937543	cycle bases
0.8412919939	frequency domain equalization fde
0.8412820164	model driven architecture
0.8412059796	classification error
0.8411725522	electronic payment
0.8411518886	linear temporal logic
0.8411435154	io intensive
0.8411294406	diversity gain
0.8411109107	knowledge extraction
0.8410993826	traffic load
0.8410656535	viterbi algorithm
0.8410583330	low dose
0.8410533394	scientific visualization
0.8410518438	boston
0.8410479308	design methodology
0.8409998658	temperature dependence
0.8409968724	bandwidth utilization
0.8409949331	quantified boolean
0.8409784871	uncertain nonlinear systems
0.8409596899	arc transitive
0.8409490433	operating room
0.8409462849	generalization error
0.8409460384	harmonic distortion
0.8409103204	unix
0.8408835702	linked data
0.8408658875	fuzzy classifier
0.8408379477	middle school students
0.8408146987	williams
0.8407143593	sound sources
0.8407119428	reference frames
0.8407117938	image resizing
0.8407075931	sts
0.8406155922	johnson
0.8406081809	receiver operating characteristics
0.8406009583	fuzzy rule
0.8405877204	modulated signals
0.8405549112	file systems
0.8405451062	thomas
0.8405408038	kernel pca
0.8404572121	mixture models
0.8404546005	laguerre
0.8404540740	wireless personal area network
0.8404498364	langevin
0.8404420712	prize
0.8404279135	visual words
0.8404153757	finite length
0.8404074516	leaf node
0.8404057767	traffic loads
0.8403973571	wide baseline
0.8403772194	fusion center
0.8403627387	cache coherence protocol
0.8403490283	dynamic bandwidth allocation
0.8403292653	arizona
0.8403189323	reynolds
0.8403183836	materialized views
0.8402945880	feynman
0.8402290297	wishart
0.8402282791	event related potentials
0.8402238602	network topology
0.8402072340	catalan
0.8401792267	greedy algorithm
0.8401584265	intensity modulated
0.8401475033	poetry
0.8400757265	interfering signals
0.8400670918	incident response
0.8400603917	anonymous communication
0.8400523665	mental state
0.8400304393	solar energy
0.8399869831	rate compatible
0.8399669416	mozilla
0.8399645093	sampling period
0.8399390376	cumulative distribution function cdf
0.8399101776	emotional responses
0.8399068868	frame error rate
0.8399066388	world wide
0.8398977620	satellite networks
0.8398882375	sobolev
0.8398761631	trojan
0.8398066393	imu
0.8397953006	spatial diversity
0.8397947556	fed induction
0.8397845049	ilp formulation
0.8397537392	army
0.8397511834	airline
0.8397463931	czech
0.8397376457	cross language information retrieval
0.8397295323	cross disciplinary
0.8397026487	linear dispersion
0.8396832086	memory allocation
0.8396769492	comprehensive evaluation
0.8396566328	inequality constraints
0.8396471381	age related
0.8396360060	pervasive games
0.8396247471	command line
0.8396030217	simon
0.8395573402	bidding strategies
0.8395364495	linear matrix inequality lmi
0.8395344083	michigan
0.8394912408	paris
0.8394814847	information theory
0.8394671566	facial images
0.8394659662	dirac
0.8394601239	kronecker
0.8394439596	distributed hash table
0.8394377868	eye tracker
0.8394285424	trust evaluation
0.8393818859	expert knowledge
0.8393765206	deadlock detection
0.8393764767	usability engineering
0.8393538758	mexican
0.8393397965	boiling
0.8393206197	league
0.8393193419	longest path
0.8393171351	scheduling strategy
0.8392250577	noncooperative game
0.8392099312	attack detection
0.8391972898	numer
0.8391859619	cpu cores
0.8391786077	mp3
0.8391763378	light transport
0.8391754230	learning style
0.8391507014	direct link
0.8391417041	exit charts
0.8391205170	technology adoption
0.8391055134	privacy enhancing
0.8390911263	architectural styles
0.8390796525	hierarchical bayesian
0.8390676218	kleene
0.8390369712	mars
0.8390307086	posterior probability
0.8390155350	distance measurement
0.8390110092	islamic
0.8389941321	location update
0.8389738718	dimensional hypercube
0.8389290296	path planner
0.8389033020	quality evaluation
0.8388978736	rfid enabled
0.8388652401	columbia
0.8388512165	cooper
0.8388316621	device drivers
0.8388027481	finite element approximation
0.8387510908	empirical research
0.8387437895	pure strategy
0.8387312806	croatian
0.8387294862	gross
0.8387216095	portugal
0.8386878806	open standards
0.8386804423	ofdm symbol
0.8386633384	aware routing
0.8386588375	buffer occupancy
0.8386297163	post processing
0.8386197228	multi path routing
0.8386194943	radial basis function networks
0.8386042294	dual mode
0.8386027423	image acquisition
0.8385994331	exponentially stable
0.8385992796	finite impulse response
0.8385878369	excel
0.8385529793	sparql queries
0.8385402694	power converters
0.8385071697	kripke
0.8385022396	path length
0.8385021227	room temperature
0.8384910245	metro
0.8384882974	malay
0.8384868582	live video
0.8384768177	strategic planning
0.8384565888	continuous valued
0.8384564424	england
0.8384447264	independence number
0.8384350833	multi scale
0.8384285592	private information
0.8384193603	bayesian classifier
0.8383964551	klein
0.8383888341	james
0.8383843543	personal information
0.8383681887	feature subsets
0.8383651493	pulse wave
0.8383623731	crossover operators
0.8383331596	mobile augmented reality
0.8383223286	hoare
0.8383147660	perceived risk
0.8383135199	action research
0.8382984861	multi hop wireless networks
0.8382778275	bias temperature instability
0.8382756752	jordan
0.8382589281	visual cryptography
0.8382497692	finite volume method
0.8382481988	fuzzy membership functions
0.8382375828	language model
0.8382338584	handwritten word
0.8382229988	uwb channel
0.8382173332	bregman
0.8382165083	assistive technologies
0.8382152308	silver
0.8382149930	small gain
0.8381929609	closed form
0.8381883812	bob
0.8381640174	en el
0.8381597923	ionic
0.8381401488	cooperative game
0.8381375755	decision support tool
0.8381238056	velocity fields
0.8381008522	performance improvement
0.8380743581	software development teams
0.8380673063	cost savings
0.8380521682	multi objective evolutionary algorithm
0.8379935906	user perceived
0.8379744533	scoring function
0.8379738623	high speed downlink packet access
0.8379507921	multimodal fusion
0.8378972310	swiss
0.8378921237	project managers
0.8378320716	observer design
0.8378273850	parity check matrix
0.8378261338	healthcare organizations
0.8378260833	cholesterol
0.8378255485	node degree
0.8378147059	austria
0.8378036707	provably correct
0.8377775630	setup times
0.8377743809	index structure
0.8377491164	variable step size
0.8377320418	access rights
0.8377235895	rule discovery
0.8377215847	scheduling policies
0.8376290329	minkowski
0.8375968163	max sat
0.8375784371	bayes classifier
0.8375433652	semantic heterogeneity
0.8375343788	digital elevation
0.8374919488	event triggered
0.8374906233	dc dc
0.8374726380	journal articles
0.8374562832	mobile telecommunication
0.8374454473	hash tables
0.8374090432	stochastic optimization
0.8373954522	canadian
0.8373920501	user behaviour
0.8373693336	cmps
0.8373564970	krylov
0.8373524401	mobile communications
0.8373496357	borel
0.8373123077	turbulent flow
0.8373104689	tablet
0.8372902227	wireless local area network
0.8372435105	ec2
0.8372098281	log file
0.8372069344	princeton
0.8371741477	core processor
0.8371361729	gulf
0.8371157577	erps
0.8371108696	delphi
0.8371105259	control theory
0.8370960586	russian
0.8370625724	scripting languages
0.8370509731	dagstuhl
0.8370212626	keyword queries
0.8370201404	joint channel estimation
0.8369780528	lebesgue
0.8369687591	power delivery
0.8369572225	software development process
0.8369445363	security policies
0.8369278885	voxel wise
0.8369178501	pac
0.8369071081	differential operator
0.8369008979	policy gradient
0.8368866224	relay link
0.8368855567	voice quality
0.8368805643	fig
0.8368773441	snr regime
0.8368598979	false alarm probability
0.8368500809	wireless mesh
0.8368492439	ramsey
0.8368449814	mobile robot localization
0.8368292195	cellbe
0.8367846249	congress
0.8367170165	bankruptcy prediction
0.8367088925	manufacturing industry
0.8366989261	intelligent systems
0.8366694198	total cost
0.8366632300	illinois
0.8366220330	opengl
0.8365969538	power spectral density psd
0.8365898995	brain images
0.8365621686	bch
0.8365598357	facial features
0.8365514318	rlc
0.8365513319	linear codes
0.8365478696	abductive
0.8365449728	engineering education
0.8365158751	erasure channels
0.8364951655	pocket
0.8364940371	rnas
0.8364935895	firing rates
0.8364892114	random graphs
0.8364838762	aerial vehicles
0.8364816679	iris segmentation
0.8364159773	beijing
0.8363981617	neural activity
0.8363835860	lunar
0.8363665915	ee
0.8363643710	frank
0.8363388976	mimo multiplexing
0.8363378690	grid enabled
0.8363335252	hawaii
0.8363068627	multi input multi output
0.8362838979	uniform hypergraph
0.8362831406	collaborative virtual environments
0.8362766728	sample consensus
0.8361762731	opteron
0.8361549383	elementary school
0.8361297520	escherichia coli
0.8360938065	test data volume
0.8360877167	paul
0.8360803640	communication protocol
0.8360475771	exchange rates
0.8360404824	grid connected
0.8360251270	association rules mining
0.8360196536	genetic variation
0.8360177521	existence uniqueness
0.8360175930	aware routing protocol
0.8359978989	repeated games
0.8359849640	cerebellar
0.8359417674	irish
0.8359360156	beowulf
0.8359283661	cutting edge
0.8359235908	doubly stochastic
0.8359130972	ministry
0.8359129111	cyber attacks
0.8359012270	group key
0.8358911265	case studies
0.8358695961	humanities
0.8358625495	mutually exclusive
0.8358545676	apache
0.8358515438	gas sensing
0.8358334772	pairwise error probability pep
0.8357918492	brain computer interface
0.8357577243	sinc
0.8357500443	ford
0.8357087033	iran
0.8356929661	semiconductors
0.8356913579	video content
0.8356817084	music recommendation
0.8356789196	binary classification
0.8356695662	complete bipartite graph
0.8356667104	semantic search
0.8356252671	lewis
0.8356249946	tac
0.8356081778	interface design
0.8355831862	source location privacy
0.8355636511	spatial data
0.8355344946	compression ratio
0.8355282166	s2
0.8355139622	pine
0.8355088839	expectation maximization algorithm
0.8354926225	gabor features
0.8354751279	parallel corpora
0.8354134644	kernel based
0.8354124988	periodic solution
0.8353878983	allocation problem
0.8353547732	petersen
0.8353388353	atp
0.8353274909	medical image registration
0.8353164328	morris
0.8353118433	multimedia services
0.8353045151	bass
0.8352974645	information dissemination
0.8352946059	msn
0.8352726554	network simulator
0.8352476793	wine
0.8352428967	network utility maximization
0.8352107803	healthy subjects
0.8352080874	temperature sensor
0.8351430842	perceptual grouping
0.8351395513	data association
0.8351386340	texas
0.8351304344	ceramic
0.8351053659	sequence labeling
0.8350995729	bragg
0.8350984529	harris
0.8350968729	network operators
0.8350858248	epidemiology
0.8350706711	gini
0.8350579532	ticket
0.8350453589	pic
0.8350449059	ireland
0.8350431928	emotional expression
0.8350399210	health information systems
0.8350221190	resource manager
0.8350053290	mellin
0.8349956272	portuguese
0.8349901977	frame difference
0.8349835953	rank aggregation
0.8349478871	image search
0.8349409168	embodied agents
0.8349253283	nat
0.8349175659	gordon
0.8349085360	cooperative networks
0.8348827544	level crossing
0.8348700612	douglas
0.8348342767	data intensive applications
0.8348326383	equal error rate
0.8348202883	breaker
0.8348034575	link failure
0.8347736563	error compensation
0.8347720971	home networks
0.8347572373	reaction force
0.8347518071	data exchange
0.8347463386	simulation environment
0.8347270641	speaker independent
0.8347268793	software component
0.8347153529	studio
0.8347068103	tertiary structure
0.8347009614	directive
0.8346960802	curve auc
0.8346908063	information systems
0.8346903500	costa
0.8346821863	tower
0.8346744851	council
0.8346518892	power efficient
0.8346488048	maple
0.8346290132	david
0.8346281671	jigsaw
0.8346221213	winter
0.8346187160	visualization tools
0.8346030120	tide
0.8345871953	quad tree
0.8345792963	nas parallel
0.8345764768	reusable components
0.8345739054	network calculus
0.8345718620	wuhan
0.8345693246	mpi io
0.8345575468	israel
0.8345570666	brown
0.8345496177	multi band
0.8345390784	sweden
0.8345026874	minimum cut
0.8344878219	centrality measures
0.8344877588	brain tumor
0.8344736800	michael
0.8344612210	classifier ensemble
0.8344501226	concept map
0.8344459553	allen
0.8344107657	arab
0.8344034261	mutual interference
0.8344013814	bird
0.8343978332	raman
0.8343797019	angle of arrival aoa
0.8343783228	nk
0.8343686061	pairwise similarity
0.8343435309	qrs
0.8343306953	visual vocabulary
0.8343231471	event streams
0.8343064721	angiography
0.8342997568	high resolution remote sensing
0.8342877628	random variables
0.8342867279	einstein
0.8342518529	licensed spectrum
0.8341532537	mixed integer nonlinear
0.8341388790	concept maps
0.8341349848	cognitive architecture
0.8341316605	greece
0.8341289301	multi view
0.8341047599	intercultural
0.8341039969	basque
0.8340999066	pyramidal
0.8340981693	odes
0.8340812238	operator splitting
0.8340467457	cubic graphs
0.8340220085	error probability pep
0.8340172666	petroleum
0.8339979091	saas
0.8339816791	durch die
0.8339771920	advanced encryption standard
0.8339643107	min min
0.8339463708	interference limited
0.8339430230	phoenix
0.8339398704	arctic
0.8339333316	nonlinear equations
0.8339178701	quorum
0.8338759521	drosophila
0.8338635127	eastern
0.8338402718	ensemble learning
0.8338306557	bessel
0.8338223678	mdc
0.8338112792	execution times
0.8338071327	cisco
0.8337683616	arabidopsis
0.8337623384	madrid
0.8337603805	code clones
0.8337334429	tesla
0.8337176244	pig
0.8337110178	ambulatory
0.8336948637	attestation
0.8336637903	firing rate
0.8336619954	membership degree
0.8336479949	whiteboard
0.8336330159	florida
0.8336280279	coded ofdm
0.8336012549	entropy coding
0.8335628781	tidal
0.8335619139	dvd
0.8335413693	bow
0.8335282461	handover latency
0.8335278511	milling
0.8335176247	finite sample
0.8334884104	high dimensional data
0.8334824852	join queries
0.8334808371	helmholtz
0.8334727861	load distribution
0.8334704207	district
0.8334545918	index terms speech
0.8334403435	trauma
0.8334390345	pnn
0.8334213723	wireless multi hop networks
0.8334037030	interval graphs
0.8333989773	dam
0.8333980654	herd
0.8333529180	crfs
0.8333420454	video frames
0.8333269494	stanford
0.8333224066	fpga based
0.8332602571	business process models
0.8332587109	multiversion
0.8332572615	s3
0.8332507417	voip traffic
0.8332273569	high end
0.8332267824	low frequency
0.8332035026	neutron
0.8331790487	pearl
0.8331497216	dsls
0.8331406535	cyber physical systems
0.8331215299	semi infinite
0.8331183788	france
0.8331171465	personalized recommendations
0.8331083446	galois
0.8330754394	dual band
0.8330716054	processor cores
0.8330487963	diffusion equation
0.8330485560	distance metric
0.8330467104	han
0.8330248028	asset management
0.8329872657	circulant graphs
0.8329687499	computing environment
0.8329565807	greek
0.8329076501	semi automated
0.8328574852	geography
0.8328544941	covert channel
0.8328403080	high power
0.8328255187	single machine scheduling problem
0.8327997721	sanskrit
0.8327991040	census
0.8327631331	binary sequences
0.8327368565	power consumption
0.8327358187	image patches
0.8327264377	uml models
0.8327222856	salmonella
0.8327073565	error estimates
0.8326946031	2nd order
0.8326913044	powerpoint
0.8326696487	multilinear
0.8326604766	mobile sensor networks
0.8326455501	current source
0.8326333486	cloud infrastructure
0.8326318716	inter organizational
0.8325949207	swapping
0.8325882244	kullback leibler divergence
0.8325710375	alamouti
0.8325259952	mobility models
0.8325195823	packet size
0.8325168416	wait free
0.8325106793	hyperspectral data
0.8324971286	toll
0.8324920626	adobe
0.8324711037	euler equations
0.8324419888	chaotic neural network
0.8324390345	cci
0.8324386796	fourth generation
0.8324359085	proton
0.8324275127	oceanic
0.8324192837	risk factors
0.8324052371	phoneme recognition
0.8323825780	georgia
0.8323799075	task oriented
0.8323788674	selection problem
0.8323759146	deformable model
0.8323756574	small scale
0.8323664754	low density parity check ldpc codes
0.8323660454	maximum likelihood detection
0.8323417524	cao
0.8323347120	mach
0.8323292888	modular redundancy
0.8323216644	consistency maintenance
0.8323165533	gray code
0.8322892913	pus
0.8322541884	spray
0.8322272470	video processing
0.8322252754	nyquist
0.8322116420	planet
0.8322045500	intervertebral
0.8321992656	weyl
0.8321698670	common sense knowledge
0.8321646215	fitness functions
0.8321589792	secondary structure prediction
0.8321383300	natural gas
0.8321081990	innovation diffusion
0.8320862284	filter design
0.8320672298	linearly independent
0.8320539963	evolutionary computing
0.8320346397	multiuser scheduling
0.8320077132	secondary user
0.8319918873	mutually independent
0.8319705448	thailand
0.8319676669	dmt
0.8319635353	state explosion
0.8319624722	penn
0.8319623645	finite difference scheme
0.8319498847	bellman
0.8319400049	lite
0.8319287594	cdma systems
0.8319124762	evolution strategy
0.8319099793	inferior frontal
0.8319067074	infinite impulse response
0.8318935660	alzheimer
0.8318891394	background knowledge
0.8318802842	low pass
0.8318601782	future directions
0.8318549045	arrhythmia
0.8318449269	intermodal
0.8317978731	tin
0.8317785027	chernoff
0.8317760442	enterprise interoperability
0.8317736251	ofdm based
0.8317589718	question answer
0.8317375156	qoe
0.8316958464	life cycles
0.8316914609	game design
0.8316796942	iranian
0.8316400967	convention
0.8316335116	topic models
0.8316307676	wireless cellular networks
0.8316239573	cantor
0.8316031850	feature spaces
0.8315899946	kolmogorov
0.8315875602	pittsburgh
0.8315850571	lorenz
0.8315815684	asian
0.8315772444	ising
0.8315709040	posix
0.8315679599	cook
0.8315649649	vista
0.8315624427	embodied conversational
0.8315417091	jackson
0.8315416831	molecular dynamics simulation
0.8315355571	parallel computation
0.8315222377	terra
0.8315141674	zurich
0.8314958454	abstract machine
0.8314863271	texture segmentation
0.8314734014	cane
0.8314720189	bucket
0.8313839909	multicarrier code division
0.8313832280	uep
0.8313810345	molecular descriptors
0.8313619476	single cell
0.8313274810	road networks
0.8313179096	competitive learning
0.8313124749	naval
0.8312953786	primary visual cortex
0.8312750347	equal gain
0.8312687617	air interface
0.8312301260	mus
0.8311874358	pakistan
0.8311707806	cloud services
0.8311579681	sync
0.8311308662	diffusion equations
0.8311308067	explorer
0.8311055886	assistive technology
0.8311007581	venous
0.8310933563	coding gain
0.8310891133	binary code
0.8310886165	internets
0.8310804013	amazon
0.8310601862	cyclone
0.8310409095	linear cryptanalysis
0.8310380764	electro mechanical
0.8310259110	knowledge engineering
0.8310128040	davis
0.8310081136	asia
0.8309960617	decisional
0.8309831424	location dependent
0.8309604372	test cases
0.8309373300	washington
0.8309368044	direct manipulation
0.8309297700	cognitive processes
0.8309274765	curvelet
0.8309234596	skeletal
0.8308864538	base stock
0.8308558898	bees
0.8308517094	poker
0.8308394666	gf2
0.8308314045	garch
0.8308151955	robust tracking
0.8308070332	anp
0.8307995016	formative evaluation
0.8307974476	dijkstra
0.8307896917	gpl
0.8307518176	identity verification
0.8307405817	nokia
0.8307158236	energy efficient routing
0.8307122761	object class
0.8307092819	locally finite
0.8307077572	noble
0.8306935034	parameter uncertainties
0.8306569124	arrival times
0.8306527469	network topologies
0.8306468297	packet drop
0.8306403859	monadic second order logic
0.8306229033	multi tasking
0.8306022305	wizard
0.8305903605	finland
0.8305900424	snps
0.8305884759	acoustics
0.8305752803	division duplex
0.8304936929	numerals
0.8304863749	processor sharing
0.8304818863	random effects
0.8304794646	spark
0.8304540498	journalism
0.8304470664	convex quadratic
0.8304358842	jazz
0.8304307323	delay differential equations
0.8304249036	nurse
0.8304115926	piece wise
0.8303988771	user centred
0.8303831068	schottky
0.8303268943	observatory
0.8303115920	amsterdam
0.8302998044	reengineering
0.8302980425	fractional anisotropy fa
0.8302956872	bullet
0.8302802111	webs
0.8302717450	wimax networks
0.8302068768	surf
0.8301823118	cell size
0.8301590520	code generator
0.8301367812	information visualization
0.8301356351	ballistic
0.8301211146	multi user interference
0.8301206555	cadence
0.8300906653	qualitative reasoning
0.8300856063	average power
0.8300838847	single view
0.8300769621	path loss exponent
0.8300699867	media access control mac
0.8300685797	spill
0.8300552481	embedding capacity
0.8300000776	gaussian elimination
0.8299870573	transformational
0.8299607571	democracy
0.8299522080	expressed genes
0.8299473592	ltdrnrnthis
0.8299450144	eighth
0.8299403282	walled
0.8299367993	smart home environment
0.8299364394	aorta
0.8299134026	oriental
0.8299122984	tale
0.8298943303	temporal correlation
0.8298882292	ami
0.8298860216	protein families
0.8298723057	darwin
0.8298607543	wavelet transformation
0.8298541373	program executions
0.8298466888	clustering coefficient
0.8298384400	t2 weighted
0.8298292130	railways
0.8298282446	nas
0.8298220007	decentralized control
0.8298074608	pci
0.8298048645	socioeconomic
0.8298017013	comb
0.8297984251	robert
0.8297964571	high level
0.8297912143	apple
0.8297813449	abstracting
0.8297783927	soliton solutions
0.8297505995	tabu search algorithm
0.8297391396	hydroelectric
0.8297288408	gbs
0.8297272923	fork
0.8297154202	peer assessment
0.8297112545	scheduling problems
0.8296652525	switzerland
0.8296428553	diophantine
0.8296278663	multimedia retrieval
0.8296076491	error linear complexity
0.8295963533	game based learning
0.8295886843	twisted
0.8295820036	coin
0.8295258799	rose
0.8295057696	human visual system hvs
0.8295034721	ambient media
0.8294714580	berlin
0.8294496046	power delay product
0.8294449104	atlantic
0.8294426528	teller
0.8294345791	owa
0.8294339478	gigabit
0.8294297167	subjective quality
0.8294161782	positron emission
0.8293955718	geforce
0.8293770175	transmembrane
0.8293707829	linear complexity
0.8293694557	smith
0.8293690111	satisfaction degree
0.8293618644	defence
0.8293609069	regression models
0.8293542683	minimum spanning tree problem
0.8293248340	monte carlo sampling
0.8293059583	logical relations
0.8292884284	reservoir computing
0.8292707950	toa estimation
0.8292540836	geostationary
0.8292521551	end users
0.8292497020	malicious code
0.8292400485	chebyshev
0.8292399140	manufacturing companies
0.8292380821	millennium
0.8292309036	astronomy
0.8292258937	plateau
0.8292208619	general purpose processor
0.8292153721	coral
0.8292047198	multi carrier code division multiple access
0.8291762439	ddr
0.8291521569	beltrami
0.8291466527	financial services
0.8291273775	video sequence
0.8291110783	dog
0.8291065773	grey level
0.8291064992	ad hoc on demand distance vector
0.8290971579	fca
0.8290875584	pit
0.8290866852	gaia
0.8290645332	language learning
0.8290529614	multi radio
0.8290445900	bpnn
0.8290362882	rush
0.8290346004	chuas
0.8290336748	large databases
0.8290316743	ore
0.8290194226	globally asymptotically stable
0.8290081294	sap
0.8290013307	icd
0.8289973473	arch
0.8289928289	nonlinear regression
0.8289880436	polish
0.8289871508	hardening
0.8289836488	defeasible
0.8289345148	ho
0.8289268395	timing synchronization
0.8289216313	mandarin
0.8289127007	magazine
0.8288359332	nous
0.8288349430	carp
0.8288234023	sport
0.8288203301	stackelberg
0.8287997137	plasmodium
0.8287787315	covariance matrix adaptation
0.8287779398	implicit surfaces
0.8287709475	mdd
0.8287698767	renal
0.8287546129	indonesia
0.8287508575	kernel function
0.8287476594	reference architecture
0.8287104994	local features
0.8286998847	muller
0.8286918545	yang
0.8286776495	quantum computing
0.8286755868	helix
0.8286556557	initial population
0.8286538355	agent based simulation
0.8286160390	potts
0.8286134954	signcryption
0.8286123807	cac
0.8286094879	epr
0.8285981517	spreading code
0.8285885045	kyoto
0.8285586532	homological
0.8285558487	attribute decision making
0.8285513292	resonant frequency
0.8285442997	scientific journals
0.8285383789	training sequence
0.8285316416	euro
0.8285054340	colored petri
0.8284937976	cpc
0.8284918560	debt
0.8284643960	rateless
0.8284511226	wsd
0.8284419943	radiology
0.8284366017	defending
0.8284216534	throughput enhancement
0.8284077014	psychiatric
0.8284028527	low rate
0.8284024023	towers
0.8283737426	aneurysm
0.8283517748	security management
0.8283460422	cartilage
0.8283374885	lds
0.8283205025	dc voltage
0.8283153219	thyroid
0.8282940127	battle
0.8282850386	multisensory
0.8281985826	slowly varying
0.8281898881	feature subset
0.8281703349	fuzzy inference system anfis
0.8281377465	video cameras
0.8281354289	sounding
0.8281283737	intersymbol interference
0.8281272341	scene segmentation
0.8281211894	hotel
0.8281129558	multi rate
0.8280996540	video clip
0.8280963399	childhood
0.8280942175	fuzzy neural networks
0.8280905304	spectrometer
0.8280773393	vh
0.8280587672	euclidean distances
0.8280463509	temporal difference
0.8280205381	feedback stabilization
0.8280144755	production lines
0.8280135711	ankle
0.8280042060	municipal
0.8279888536	tel
0.8279867571	minimum mean square error mmse
0.8279800200	logic program
0.8279732403	vocational
0.8279564623	power converter
0.8279464612	coa
0.8279442183	submarine
0.8279002145	sdram
0.8278794588	golden
0.8278377820	regression testing
0.8278361903	daubechies
0.8278346479	springer
0.8278210662	reflex
0.8278079342	tsunami
0.8277622928	auto tuning
0.8277508437	medical image retrieval
0.8277433899	rpc
0.8277311628	multiple antennas
0.8277291430	tense
0.8276984409	pentium
0.8276895514	production scheduling
0.8276768886	tokyo
0.8276739414	double gate
0.8276670240	packing problem
0.8276471259	pumping
0.8276347535	hebbian
0.8276261007	multi threading
0.8276164754	invariant sets
0.8276016928	firefox
0.8275414167	llr
0.8275401980	akaike
0.8275327354	wiener
0.8275269689	parks
0.8275227234	bell
0.8275156011	brain regions
0.8275150137	float
0.8275080302	photovoltaic
0.8275063548	upper layer
0.8274953648	permanent magnet synchronous
0.8274793913	tft
0.8274666526	human faces
0.8274597756	pep
0.8274522588	uncertain data
0.8274383549	monkey
0.8274380720	crb
0.8274210423	eas
0.8274170006	performance indicators
0.8273895920	xpath
0.8273857906	co2
0.8273846866	ant colony optimization algorithm
0.8273718466	learning activities
0.8273658145	gpu implementation
0.8273432820	automated reasoning
0.8273339946	urban land
0.8273213352	mountain
0.8273168979	tree structure
0.8273128367	xp
0.8272755672	scale free networks
0.8272506155	unions
0.8272469524	methyl
0.8272441712	contactless
0.8272404134	rfid systems
0.8272273384	karush kuhn tucker
0.8272073823	process variation
0.8271916014	traction
0.8271366548	bicm
0.8271343415	set cover
0.8271197604	fruit
0.8271195377	alcohol
0.8270890722	finite buffer
0.8270885574	gambling
0.8270818340	sit
0.8270790991	optimality conditions
0.8270731991	socket
0.8270711443	beach
0.8270711314	cryptographic keys
0.8270623979	frequency modulated
0.8270613726	blade
0.8270568885	leap
0.8270369489	mobile station
0.8270196641	camp
0.8270084294	simulation tool
0.8269998746	rainbow
0.8269937302	digital images
0.8269825692	indoor navigation
0.8269778287	channel utilization
0.8269737786	radio networks
0.8269680422	amd
0.8269580650	tropical
0.8269495263	temporal patterns
0.8269407479	victoria
0.8269386130	blind channel estimation
0.8269365410	edge weights
0.8269357947	medical device
0.8269107093	abstractrnrnthis
0.8269039250	histone
0.8269027357	network design problem
0.8269020883	fuzzy relation
0.8268846615	bpel processes
0.8268644959	organizational learning
0.8268623935	aviation
0.8268362174	pairwise error probability
0.8268357687	experimental validation
0.8268206730	generalization capability
0.8267947282	hidden nodes
0.8267916914	minimum sum
0.8267889407	norwegian
0.8267171304	duty cycles
0.8267093140	situation assessment
0.8266965078	dv
0.8266938836	coaxial
0.8266857140	diet
0.8266774686	bay
0.8266648206	cwt
0.8266601621	ietf
0.8266485213	environmental monitoring
0.8266166081	absorber
0.8266062327	single sink
0.8266061511	wind power
0.8266049087	dtw
0.8265827392	allosteric
0.8265821255	remotely sensed data
0.8265821003	multinomial
0.8265712137	interlaced
0.8265529177	dvfs
0.8265478867	bpsk
0.8265345763	dynamic scenes
0.8265016658	speech corpus
0.8264867663	ace
0.8264716313	hermitian
0.8264677999	reform
0.8264635983	anal
0.8264628121	pole placement
0.8264460637	cauchy
0.8264405571	steady states
0.8264366037	rgb color
0.8264272794	test statistic
0.8264113907	sao
0.8263858810	false positive rates
0.8263706131	microsystems
0.8263578103	battery life
0.8263543316	chromatin
0.8263422807	induced subgraphs
0.8263325157	slas
0.8263196921	clustering method
0.8262936719	power efficiency
0.8262779412	tof
0.8262586027	streaming applications
0.8262493729	garden
0.8262470207	mimo detector
0.8262436339	postal
0.8262344461	circadian
0.8262278479	thesaurus
0.8262255258	convertible
0.8262223233	syst
0.8262097394	current density
0.8262041020	astronomical
0.8261967199	talent
0.8261758376	mm wave
0.8261586092	audio recordings
0.8261450649	random number
0.8261412420	southwest
0.8261212380	identity based
0.8260961117	zipf
0.8260916318	digest
0.8260738982	subsurface
0.8260710640	gasoline
0.8260573817	target localization
0.8260461912	influenza
0.8260380473	rogers
0.8260335237	raptor
0.8260297684	isps
0.8260242284	business models
0.8260154781	levy
0.8260027887	model based testing
0.8259979408	oncology
0.8259973552	rem
0.8259812909	calendar
0.8259804442	requirements specification
0.8259679420	boring
0.8259648854	posterior probabilities
0.8259601706	multicore systems
0.8259470581	business logic
0.8259429288	scene understanding
0.8259355249	qt
0.8259345599	correlating
0.8259287616	brain computer interfaces
0.8259275700	polynomially solvable
0.8258967040	national culture
0.8258942572	pspace
0.8258757625	chinese english
0.8258756311	universidad
0.8258752440	csi feedback
0.8258747539	virtex ii pro
0.8258631895	temporal logics
0.8258280166	confidence measure
0.8258218074	macroeconomic
0.8258045469	simulation platform
0.8258005901	race detection
0.8257699350	blogosphere
0.8257357037	lucid
0.8257296371	maximum likelihood decoding
0.8257239334	association mining
0.8257054871	speech perception
0.8256967804	process improvement
0.8256962599	xilinx virtex ii
0.8256566569	db2
0.8256558016	agent based
0.8256538386	corporation
0.8256368664	root mean square rms
0.8255664005	cohomology
0.8255630356	wireless body sensor
0.8255482465	test bench
0.8255454696	phys
0.8255137125	metasearch
0.8254890976	baby
0.8254709344	sony
0.8254703452	software product
0.8254702590	malaysia
0.8254609238	force sensor
0.8254454782	app
0.8254301830	stealing
0.8254239480	outdoor environments
0.8253878366	tom
0.8253658920	rover
0.8253549663	error rate ser
0.8253514908	plasmon
0.8253364425	qc
0.8253265324	affairs
0.8253196544	sus
0.8253085759	term frequency
0.8252826214	chaining
0.8252775893	ensemble classifiers
0.8252681439	longest common
0.8252642812	phone recognition
0.8252619453	thai
0.8252603483	constructivist
0.8252372625	remediation
0.8252314102	combinatory
0.8252118734	barcode
0.8252105738	race conditions
0.8252098053	finite state markov
0.8251826711	clean speech
0.8251637043	situation aware
0.8251527516	inter domain
0.8251481956	wh
0.8251418480	geometric distortions
0.8251114983	visual representations
0.8250854979	tensile
0.8250825629	charger
0.8250706279	cfd
0.8250696752	multi radio multi channel
0.8250471455	brazil
0.8250403530	nam
0.8250314910	frequency selective channel
0.8250285303	web ontology language
0.8250122976	database server
0.8250067817	perceptrons
0.8249689117	signature generation
0.8249594689	mai
0.8249571597	spindle
0.8249498277	trajectory generation
0.8249443139	jet
0.8249258260	yi
0.8249088701	usb
0.8248936214	change point
0.8248890218	human resource
0.8248758362	software project
0.8248384870	exp
0.8248315492	arabic language
0.8248292482	high rate
0.8248242447	xeon
0.8247732253	executive
0.8247543602	field trial
0.8247303278	evolutionary multiobjective
0.8247228832	attitude control
0.8247194322	stego image
0.8246633060	envy
0.8246436577	slab
0.8246200780	clock period
0.8246152980	emd
0.8245888155	northwest
0.8245856066	mixed integer program
0.8245639606	game play
0.8245508821	shape prior
0.8245478304	san
0.8245381478	similarity searching
0.8245243810	shuttle
0.8245198222	austrian
0.8245180041	multi mode
0.8245138534	tropospheric
0.8245060600	globus
0.8245015020	shotgun
0.8244813964	space time block coding
0.8244717016	semantic integration
0.8244515576	software reuse
0.8244408970	unit disk
0.8244266352	cryptographic hash
0.8244055790	composer
0.8244052137	diving
0.8243891384	multiuser mimo systems
0.8243870916	academy
0.8243556504	gossip based
0.8243494394	cheng
0.8243237801	disruption tolerant networks
0.8243229880	lorentz
0.8243227801	rate control scheme
0.8242714545	embedded devices
0.8242672011	uncertain stochastic
0.8242565891	horn
0.8242528238	affective computing
0.8242441062	probabilistic boolean
0.8242292715	queue management
0.8242001468	hsv
0.8241862466	key exchange protocol
0.8241752989	rescue robot
0.8241650117	ku
0.8241615689	deformable models
0.8241584971	multicast routing protocol
0.8241583216	music composition
0.8241499112	tool suite
0.8241452489	chroma
0.8241293875	prosodic features
0.8241276430	dynamic walking
0.8241218546	dc link
0.8241155309	band sar
0.8241094166	enterprises smes
0.8240901117	gas sensor
0.8240772913	graft
0.8240728052	leveling
0.8240697804	low level
0.8240522381	fully connected
0.8240426919	hessian
0.8240397785	online advertising
0.8240317426	hermite
0.8240234924	deficit
0.8240208834	growth rate
0.8240164503	multi lingual
0.8240121126	fdtd
0.8239987661	automatic annotation
0.8239845288	qsar
0.8239787601	tcp connections
0.8239650641	partial channel state information
0.8239512732	hit ratio
0.8239512612	correspondence analysis
0.8239277960	video summarization
0.8239219671	vice versa
0.8239214174	spider
0.8239176847	multi objective genetic algorithm
0.8238525986	neural net
0.8238491467	guaranteed cost
0.8238402800	belgium
0.8238306604	alice
0.8238203376	sensor node
0.8238171498	null hypothesis
0.8238079458	entrepreneurship
0.8237893225	labeled examples
0.8237806085	multi objective optimisation
0.8237782446	apx
0.8237442192	cooperative mimo
0.8237262694	circuit switching
0.8237008450	firm performance
0.8236943126	hardy
0.8236824434	dynamic output feedback
0.8236504661	large scale distributed systems
0.8236486564	youth
0.8236485717	neonatal
0.8236375389	vietnamese
0.8236321991	recorder
0.8236244651	fountain
0.8236008679	harvester
0.8235772393	lisp
0.8235752998	generative models
0.8235668502	freeze
0.8235653411	vertical integration
0.8235512867	hwsw
0.8235498548	dvc
0.8235246751	software development life cycle
0.8235117643	commodity hardware
0.8235097860	wearable sensors
0.8235018310	cloud providers
0.8234837800	freezing
0.8234812679	swedish
0.8234700813	joint action
0.8234693340	arrhythmias
0.8234655974	refresh
0.8234539124	eigen
0.8234502131	russia
0.8234481889	polynomial regression
0.8234450775	lego
0.8234347107	vertebral
0.8234312364	tree based
0.8234226394	rare events
0.8234180100	precision recall
0.8233893489	bit interleaved coded modulation bicm
0.8233395512	trail
0.8233382683	county
0.8233135595	preterm
0.8232996296	analytical hierarchy process
0.8232991361	titanium
0.8232775841	tea
0.8232582290	homomorphic
0.8232544119	transferable
0.8232490089	decision rule
0.8232473735	amc
0.8232210590	large scale distributed
0.8232194463	trust negotiation
0.8232156285	packet reordering
0.8232152980	fde
0.8232135697	power supplies
0.8232007903	telescope
0.8231812390	space time block coded
0.8231703881	notch
0.8231584669	web forums
0.8231452194	red green
0.8231452157	antenna diversity
0.8230856830	planning horizon
0.8230710975	pixel level
0.8230665661	communication networks
0.8230577821	fractional fourier
0.8230549485	crystalline
0.8230403070	avr
0.8230393784	achievable sum rate
0.8230364423	fov
0.8230127080	sic
0.8230001341	multi disciplinary
0.8229971057	ka
0.8229748499	clinically relevant
0.8229433256	exponentiation
0.8229331268	messenger
0.8229322604	multihop wireless
0.8229269475	anal appl
0.8229160568	average ber
0.8229056646	priority assignment
0.8228913141	specification languages
0.8228697792	gc
0.8228675619	dvs
0.8228672802	heterogeneous data sources
0.8228627700	wormhole
0.8228522206	kl
0.8228358290	triplet
0.8228322572	cake
0.8228207672	family members
0.8227927820	kd
0.8227917158	performance analysis
0.8227753305	contention based
0.8227725470	cpus
0.8227612546	asymptotically stable
0.8227400239	archaeological
0.8227381842	dream
0.8227296614	unified modeling language
0.8227208997	critical sections
0.8227179176	breeding
0.8227156514	tdoa
0.8227154543	colleges
0.8227143739	fixed charge
0.8227063205	set associative
0.8226962224	navierstokes
0.8226947032	wide range
0.8226907280	milp
0.8226836713	dynamic pricing
0.8226647118	cosmic
0.8226616490	social aspects
0.8226447542	transporter
0.8226400091	drum
0.8226273180	cray
0.8226221306	input devices
0.8225970620	actin
0.8225903108	teleportation
0.8225799717	microfluidic chip
0.8225713374	topic model
0.8225650815	tucker
0.8225642027	fully unsupervised
0.8225592377	inter cell
0.8225575218	friction coefficient
0.8225157682	stars
0.8225006243	music collections
0.8224995534	game players
0.8224455757	domino
0.8224346579	decimal
0.8224142860	habit
0.8223710864	np completeness
0.8223672556	palm
0.8223578702	spain
0.8223570496	minimum mean squared error
0.8223532605	measurement error
0.8223495252	ptz
0.8223405299	homo
0.8223369041	icp
0.8223306312	hockey
0.8223061886	aoa
0.8223025348	mesh network
0.8222950352	medium access control protocol
0.8222911491	varying illumination
0.8222699658	distributed parameter systems
0.8222306879	processing elements
0.8221965144	topology discovery
0.8221928271	ultraviolet
0.8221775858	hydrocarbon
0.8221753736	mhc
0.8221746081	hybrid genetic algorithm
0.8221719478	xml query
0.8221713092	inter frame
0.8221699868	bist
0.8221565200	music retrieval
0.8221413674	ballot
0.8221406252	securities
0.8221351913	mgf
0.8221301206	commons
0.8221199312	zadeh
0.8221191930	weighted graph
0.8221160611	fluorescent
0.8221032803	wrap
0.8220902766	australian
0.8220816303	multivariate polynomials
0.8220786860	fair share
0.8220701677	chaotic dynamics
0.8220579554	ro
0.8220288188	galileo
0.8220059959	olog
0.8220037941	european project
0.8219915875	stitching
0.8219809041	fas
0.8219772575	soda
0.8219400954	biological sequences
0.8219372569	tennis
0.8219234683	oss
0.8219108879	seventh
0.8218901443	finite element model
0.8218895308	weighted automata
0.8218828525	kit
0.8218747591	watt
0.8218646786	methane
0.8218427106	uavs
0.8218175291	pushdown
0.8218107891	railroad
0.8218106474	hvs
0.8218102784	asphalt
0.8218041940	packet switched networks
0.8217944397	priority based
0.8217847396	hwang
0.8217797111	electronic circuits
0.8217763366	welch
0.8217741451	uplink transmission
0.8217657297	expectancy
0.8217636204	dsa
0.8217480432	vertex disjoint
0.8217435210	meyer
0.8217375891	african
0.8217117657	spatial autocorrelation
0.8217039358	hunt
0.8217008253	semantic description
0.8216976374	interference aware
0.8216946185	delay faults
0.8216608290	architect
0.8216587684	social tags
0.8216545500	location based service
0.8216371730	social web
0.8216332659	multiplicative noise
0.8216291005	vc
0.8216270728	clustering technique
0.8216218349	mitochondrial
0.8216141281	jacobian
0.8216110183	sparse representations
0.8215916655	large sized
0.8215812357	pap
0.8215800204	seq
0.8215703750	fisher information
0.8215678828	nmr
0.8215677418	shapley
0.8215637964	image database
0.8215593842	rand
0.8215364321	aquatic
0.8215086902	stanley
0.8214955608	visual slam
0.8214939491	orthopedic
0.8214814806	monte carlo methods
0.8214796756	flame
0.8214702486	poll
0.8214294688	bayer
0.8214086676	zip
0.8213980566	k3
0.8213977071	lipschitz
0.8213873338	fredholm
0.8213557348	pseudo likelihood
0.8213427335	word order
0.8213280579	furnace
0.8213225356	low noise
0.8213202915	fisheye
0.8213196005	trunk
0.8213189099	salient region
0.8213127956	moving camera
0.8213106035	grocery
0.8213076432	myocardial
0.8212963198	ia
0.8212894202	pulmonary
0.8212719557	traffic flows
0.8212607424	wavelet coefficient
0.8212451244	geometric programming
0.8212382311	succinct
0.8212286819	network architecture
0.8212258555	fractional delay
0.8211928122	force sensing
0.8211772796	query engine
0.8211559344	ozone
0.8211265358	ring signature scheme
0.8211223509	conjoint analysis
0.8211054571	chinese text
0.8211013002	distortion correction
0.8210840992	pacific
0.8210793447	multivariate gaussian
0.8210575601	unlabeled samples
0.8210565047	atrial
0.8210419347	lean
0.8210241955	twig
0.8210221592	amp
0.8209959681	altimeter
0.8209876329	combinatorics
0.8209709066	self organizing map som
0.8209634193	vq
0.8209618645	globally optimal
0.8209466202	rough set approach
0.8209188838	stratified
0.8209132577	anderson
0.8209113935	auc
0.8209112275	vlc
0.8208861133	single pass
0.8208514055	word sense
0.8208410299	wireless technologies
0.8208348154	single neuron
0.8208345756	racing
0.8208219929	pathogenic
0.8208073522	discounting
0.8208043492	wheat
0.8207937976	mdl
0.8207845512	fast multipole
0.8207743054	stability criterion
0.8207425106	dutch
0.8207349736	bulletin
0.8207083851	approximate inference
0.8207022025	level set method
0.8207000325	kernel methods
0.8206881485	rod
0.8206732819	fuzzy logic based
0.8206728834	random vectors
0.8206713939	multipoint
0.8206648199	multithreading
0.8206504423	squid
0.8206344194	player games
0.8206111167	arbitrarily shaped
0.8206074631	grooming
0.8205901048	aluminum
0.8205871710	chess
0.8205750481	csit
0.8205629640	sensing coverage
0.8205443400	creativity support
0.8205410064	multiprocessing
0.8205311201	mdp
0.8205275883	bilayer
0.8205223912	cox
0.8204735873	postgraduate
0.8204726521	qos requirements
0.8204620944	groupware
0.8204605228	tracking error
0.8204115397	snrs
0.8204006210	hiding capacity
0.8203748081	normal distributions
0.8203573023	essay
0.8203445255	carotid
0.8203338078	normal distribution
0.8203176202	mad
0.8203091584	arrow
0.8203035663	primary users
0.8203012425	finder
0.8202950069	somatic
0.8202940044	radio link
0.8202848783	ppi
0.8202717105	geographic information systems
0.8202536094	weibull
0.8202428780	distributed delays
0.8202386204	iec
0.8202344180	distance metric learning
0.8202329801	theater
0.8202286313	outflow
0.8202193144	condorcet
0.8201989865	multicast tree
0.8201853819	log likelihood ratio llr
0.8201825220	radon
0.8201689469	laminar
0.8201387995	heat flux
0.8201345294	constraint violation
0.8201252701	sha
0.8201234084	nt
0.8201025871	diamond
0.8200690098	bangladesh
0.8200504347	connector
0.8200373947	numerical integration
0.8200166252	uc
0.8200037850	conjugate gradient method
0.8199667533	yahoo
0.8199554021	pulsewidth modulation
0.8199445888	stratification
0.8199391775	brake
0.8199330327	gnu
0.8199082697	church
0.8199062317	lane detection
0.8198884183	lbs
0.8198704451	modem
0.8198609056	online auction
0.8198442073	data flow
0.8198337808	multivariate polynomial
0.8198058605	majority class
0.8197790140	gaussian sources
0.8197586709	power amplifiers
0.8197484736	temperature distribution
0.8197383704	capitalization
0.8197074122	simulink
0.8196980274	conceptual design
0.8196851688	mle
0.8196782725	magic
0.8196578366	single hop
0.8196301356	humanitarian
0.8196127946	ism
0.8195949881	uhf
0.8195896084	noaa
0.8195711690	ln
0.8195486330	electric fields
0.8195463960	received power
0.8195170854	genetic diversity
0.8195132356	passive rfid
0.8195126003	benders
0.8195078106	surface area
0.8195042102	aggregator
0.8194877274	coordinate transformation
0.8194686346	bipartite matching
0.8194146515	root mean squared error
0.8194144288	ride
0.8194136627	energy reduction
0.8193693711	sickness
0.8193603984	low density parity check
0.8193495716	travelling wave
0.8193451250	lu
0.8193380006	linear quadratic
0.8193248126	mixed mode
0.8193134180	mde
0.8192990986	clark
0.8192932510	data intensive
0.8192880143	mapreduce
0.8192755442	il
0.8192716100	bas
0.8192599736	taxi
0.8192508703	bam
0.8192305490	secondary structures
0.8192266876	waterfall
0.8192266630	javascript
0.8192264001	ptas
0.8192248352	partial least squares
0.8192052944	mip
0.8191809147	investment decisions
0.8191804277	gve
0.8191672535	frontal face
0.8191629916	cognitive map
0.8191535389	wcet analysis
0.8191307307	global stabilization
0.8191275712	carving
0.8191122597	hadamard
0.8191094194	coffee
0.8191076151	hacking
0.8190785715	robust watermarking
0.8190455393	visual features
0.8190236391	sampling frequency
0.8190095629	reconnaissance
0.8190087200	ultra low
0.8190039886	textile
0.8189851364	cascading
0.8189844277	daily living
0.8189833741	adaptive threshold
0.8189779203	paraconsistent
0.8189755094	gene regulatory
0.8189695218	event related potential
0.8189673965	melanoma
0.8189427135	data management
0.8189194010	northern
0.8189163871	haptic devices
0.8189015053	agglomeration
0.8188982687	role playing
0.8188892406	mall
0.8188849238	space time block code
0.8188847770	vco
0.8188686294	airport
0.8188613866	fluid flows
0.8188350340	enterprise information systems
0.8188317248	data mining techniques
0.8188297026	air force
0.8188006495	tax
0.8187956464	dss
0.8187895673	immune algorithm
0.8187860161	step ahead
0.8187800606	chord
0.8187699501	chameleon
0.8187617002	strict feedback
0.8187593498	xr
0.8187560782	glacier
0.8187446899	mimo ofdma
0.8187425673	cbir
0.8187395054	tf
0.8187347175	subject headings
0.8187164506	color quantization
0.8187072292	korea
0.8186979189	constraint language
0.8186839171	arrival rate
0.8186706648	dt
0.8186679477	axiom
0.8186313674	timetabling problem
0.8186302130	contourlet
0.8186171711	greens
0.8186001727	tongue
0.8185822671	granger
0.8185820162	alg
0.8185784269	gradient ascent
0.8185781048	similarity metrics
0.8185721950	purification
0.8185678329	pcr
0.8185633680	cdf
0.8185508093	anesthesia
0.8185339282	90nm cmos
0.8185334941	percolation
0.8185186559	derivative free
0.8184764451	imageclef
0.8184762340	hamilton
0.8184642274	ibm blue
0.8184538249	dating
0.8184507360	pathfinder
0.8184426755	empirical likelihood
0.8184314469	multi channel multi radio
0.8184278265	lumbar
0.8184093477	capstone
0.8184085118	rumor
0.8184084626	infant
0.8184037947	tasking
0.8183937453	boron
0.8183936481	karhunen loeve
0.8183777135	timing constraints
0.8183667981	player game
0.8183591169	visual feedback
0.8183576720	tumour
0.8183476921	cmos technology
0.8183457436	cdl
0.8183419723	conjugacy
0.8183394852	high temperature
0.8183312702	decision boundary
0.8183223794	latent topics
0.8183154019	contest
0.8182894936	bpm
0.8182826500	drain current
0.8182817043	injection attacks
0.8182792068	ld
0.8182657702	pop
0.8182656915	anchor points
0.8182580812	feature points
0.8182477670	slit
0.8182242625	tic
0.8182056707	olympic
0.8181992565	critics
0.8181842284	ultrawideband
0.8181816708	bayesian learning
0.8181790058	shield
0.8181764619	alps
0.8181721650	reproducing kernel
0.8181621751	ruby
0.8181589455	australia
0.8181588196	polyethylene
0.8181471585	dti
0.8181388206	global software development
0.8181336156	exact solutions
0.8181324540	vertex transitive
0.8180899211	fee
0.8180804329	robot control
0.8180736794	polyphonic
0.8180611162	po
0.8180562075	hierarchical modulation
0.8180420518	offshore
0.8180359671	multiple criteria decision
0.8180308606	court
0.8180082676	group communication
0.8179918093	specific modeling languages
0.8179874414	gaussian kernel
0.8179746313	uwb receiver
0.8179720427	rope
0.8179706648	mi
0.8179654964	call admission control cac
0.8179400180	biotechnology
0.8179255814	dna binding
0.8179058655	mcdm
0.8179049765	monoidal
0.8178990741	italy
0.8178935406	indian
0.8178831979	dag
0.8178693757	volterra
0.8178653757	algebraic riccati
0.8178406581	federated
0.8178404083	dish
0.8178038398	deception
0.8177895340	transmission power
0.8177845814	frequency diversity
0.8177827355	fuzzy c means
0.8177806230	zinc
0.8177802353	gaussians
0.8177753502	propeller
0.8177652348	salinity
0.8177525044	neighboring pixels
0.8177310760	analytical model
0.8177209087	dock
0.8177011854	bee
0.8176980213	asp
0.8176779015	storm
0.8176656611	cyclotomic
0.8176639017	generation partnership project
0.8176553318	stochastic gradient
0.8176250842	avalanche
0.8176206385	bandit
0.8176168283	type checking
0.8176124704	dropping probability
0.8175900678	query execution
0.8175840405	vr
0.8175639953	text processing
0.8175559674	load sharing
0.8175530401	southeast
0.8175472121	wang
0.8175383093	access network
0.8174946853	power budget
0.8174878153	spatial databases
0.8174861358	zf
0.8174788769	motion trajectories
0.8174776683	comparative genomic
0.8174475063	candidate genes
0.8174306788	weight matrix
0.8174034184	song
0.8173992267	process mining
0.8173974594	unlabeled data
0.8173936536	fund
0.8173903668	gibbs
0.8173792091	bottle
0.8173653596	aerosol
0.8173634591	processor architectures
0.8173439482	treatment planning
0.8173395788	halting
0.8172956420	component based software
0.8172830419	condition number
0.8172747650	hip
0.8172634578	hybrid automatic repeat request harq
0.8172580798	ad hoc routing protocols
0.8172528319	icc
0.8172290620	sixth
0.8172226330	dim
0.8172220412	hill
0.8171997586	ageing
0.8171970108	single source
0.8171919033	reference model
0.8171884887	a2
0.8171859592	sistema
0.8171831194	lake
0.8171816307	cohen
0.8171784638	cambridge
0.8171705294	combinatorial problems
0.8171662991	museum
0.8171465729	toe
0.8171420982	cup
0.8171315729	pls
0.8171256361	escrow
0.8171080881	sugar
0.8170850873	radio spectrum
0.8170848766	radio frequency identification rfid technology
0.8170819757	sonic
0.8170784626	geotechnical
0.8170631064	application servers
0.8170323010	enterprise wide
0.8170070716	mpsoc
0.8169891792	structured prediction
0.8169679472	dual tree complex wavelet
0.8169625452	lsb
0.8169273340	demand driven
0.8169198177	sdp
0.8169036734	markov processes
0.8169008588	collaborative tagging systems
0.8168992829	bec
0.8168810939	genesis
0.8168750689	piracy
0.8168661123	italian
0.8168540204	class diagrams
0.8168395833	approximate entropy
0.8168376130	distributed environments
0.8168337050	hybrid intelligent
0.8168309304	access control policy
0.8168175541	este
0.8167913604	pubmed
0.8167852425	scheduling algorithm
0.8167791673	65nm cmos
0.8167747060	boat
0.8167679405	contractor
0.8167640469	regression analysis
0.8167292856	job execution
0.8167287396	calligraphy
0.8167275424	plurality
0.8167205064	editorial
0.8166926810	physical activity
0.8166866322	nmf
0.8166862319	support vectors
0.8166825845	clamp
0.8166794487	stator
0.8166773521	cd
0.8166767634	t2
0.8166616566	retirement
0.8166543535	contagion
0.8166510306	panic
0.8166265486	mom
0.8166230836	dynamic time warping
0.8166181380	seat
0.8166120004	platinum
0.8165947263	canada
0.8165782507	machine tool
0.8165561727	hsdpa
0.8165169368	alos
0.8165062526	resource description framework
0.8165052514	mds
0.8165047059	text lines
0.8165002337	genetically
0.8164671748	carcinoma
0.8164619590	southern
0.8164424299	registry
0.8164415300	mental models
0.8164394740	uae
0.8164356680	persuasive
0.8163941184	spanish
0.8163765909	episodic
0.8163744876	minimum mean squared error mmse
0.8163400725	classification accuracies
0.8163380032	eng
0.8163228543	scoring functions
0.8163172359	multi core processors
0.8163163838	rent
0.8162938868	digital ecosystem
0.8162931816	kdd
0.8162921846	aromatic
0.8162879387	superscalar
0.8162792001	real numbers
0.8162700754	head tracking
0.8162500380	connected components
0.8162322234	globalization
0.8161963244	halo
0.8161943283	direction of arrival doa
0.8161871894	python
0.8161768552	psk
0.8161741975	ip based
0.8161728387	rl
0.8161615409	demand forecasting
0.8161515600	electrocardiogram
0.8161460595	ri
0.8161330398	feature descriptor
0.8161292437	window sizes
0.8160888993	spectral analysis
0.8160699616	percutaneous
0.8160655487	wcet
0.8160605391	adaptive filters
0.8160474346	knuth
0.8160313367	phd
0.8160059668	outlook
0.8160004947	approval
0.8159946365	dirichlet process
0.8159920878	morphometry
0.8159895732	brazilian
0.8159648712	assistants
0.8159422630	strips
0.8159305305	precision floating point
0.8159275900	presidential
0.8158809806	fl
0.8158669592	constrained optimization
0.8158665142	dans cet article
0.8158625238	fa
0.8158538047	fd
0.8158091342	electrical activity
0.8158073156	intraparietal sulcus
0.8158009075	implants
0.8157923642	correlation coefficients
0.8157751731	autism
0.8157509188	seal
0.8157375710	potts model
0.8157165945	coalitional
0.8157120092	ais
0.8157046096	preimage
0.8156930032	tikhonov
0.8156792202	encryption schemes
0.8156699928	wavelet analysis
0.8156683503	tape
0.8156488776	riemannian
0.8156258652	violence
0.8156095934	propulsion
0.8155965561	landsat
0.8155897606	alloy
0.8155859837	streamline
0.8155827206	manual annotation
0.8155794728	insulin
0.8155706417	california
0.8155677656	xu
0.8155676227	data sharing
0.8155469000	resource consumption
0.8155461632	defender
0.8155168580	td
0.8155028246	agent based modeling
0.8154949899	sockets
0.8154574989	likelihood function
0.8154481903	precoding scheme
0.8154411129	sum product algorithm
0.8154288051	bit error probability
0.8154283802	sr
0.8154221469	lamps
0.8154092029	traumatic
0.8154063618	decompression
0.8154043575	deck
0.8153875915	tuple space
0.8153649414	uwb systems
0.8153644733	hardware software
0.8153641616	passion
0.8153604921	pv
0.8153438901	mathematical model
0.8153417727	wire length
0.8153369565	simultaneous localization and mapping
0.8153070659	average case
0.8152306453	health related
0.8152247578	variable precision
0.8152200054	smt
0.8152076755	bent
0.8152066687	star graph
0.8151983643	sdr
0.8151883714	medicinal
0.8151852022	regenerative
0.8151688714	controller design
0.8151655495	ars
0.8151428644	tcp variants
0.8151283989	correlated fading
0.8151167836	collusion
0.8150979158	leukemia
0.8150924615	continental
0.8150701305	cholesky
0.8150533199	barrier coverage
0.8150447532	ecg signal
0.8150377140	applet
0.8150078558	west
0.8150062506	hall
0.8149956464	devs
0.8149901467	crossbar
0.8149896094	equal power allocation
0.8149887839	neural nets
0.8149718019	model transformation
0.8149419460	super peer
0.8148818176	silicone
0.8148721363	wikis
0.8148674179	consortium
0.8148470475	difference equation
0.8148330991	evolutionarily
0.8148115025	hormone
0.8148068962	electrochemical
0.8148025044	double layer
0.8147939849	glutamate
0.8147901639	phase change
0.8147828040	block wise
0.8147764779	scale free
0.8147761115	spline interpolation
0.8147656346	delay sensitive
0.8147637899	lion
0.8147543090	tam
0.8147407249	volunteer
0.8147397074	distributed memory
0.8147327374	gender recognition
0.8147258489	similarity metric
0.8147250959	dietary
0.8147210809	routing overhead
0.8147120092	sparql
0.8147116460	fp
0.8147044332	cayley
0.8146979259	event based
0.8146943490	ve
0.8146914392	coding schemes
0.8146764284	gaussian approximation
0.8146681523	buck
0.8146557986	ofdm signal
0.8146514648	pki
0.8146266889	velocity field
0.8145890876	calculator
0.8145884432	sift features
0.8145693997	mobility model
0.8145520831	maximum throughput
0.8145161565	automata theory
0.8145096627	epileptic
0.8145062304	airlines
0.8144989640	medical care
0.8144869612	hop relay
0.8144849290	spreading factor
0.8144477198	drying
0.8144311206	fe
0.8144230707	wave field
0.8144124398	ccd
0.8143981292	multi tiered
0.8143974117	web spam
0.8143971547	bevel
0.8143690231	subsampling
0.8143389680	slam
0.8143260041	motion artifacts
0.8143253246	liquidity
0.8143043691	melting
0.8142998237	allocation scheme
0.8142996707	saudi
0.8142736805	home environment
0.8142617256	park
0.8142547558	shannon
0.8142423218	esd
0.8142230730	bistatic
0.8142186344	ofdm symbols
0.8142150448	delivery rate
0.8141938354	range images
0.8141717727	virtual prototyping
0.8141585722	communication complexity
0.8141464822	body movement
0.8141337304	companion
0.8141321198	content distribution networks
0.8141286195	bare
0.8141257142	mash
0.8141228035	abstraction layer
0.8141015562	iir
0.8140906570	evaluation metrics
0.8140871838	x2
0.8140817824	natural scenes
0.8140785797	neuropsychological
0.8140675177	virulence
0.8140621838	raster
0.8140621742	sci
0.8140604581	particle swarm optimization pso algorithm
0.8140517428	betweenness
0.8140397212	stochastic local search
0.8140278098	electroencephalography
0.8139824737	memory hierarchy
0.8139391229	slr
0.8139239556	british
0.8139226207	photonic
0.8139133653	body motions
0.8138978286	cma
0.8138890017	auf die
0.8138788880	data transmission
0.8138721992	miso
0.8138505044	dl
0.8138249798	mda
0.8137989165	language constructs
0.8137982727	sar data
0.8137683255	view synthesis
0.8137594022	pairwise comparisons
0.8137592845	wrist
0.8137412223	bold response
0.8137317801	ag
0.8137221892	single precision
0.8137190023	material handling
0.8136732936	faceted
0.8136652350	gauss
0.8136643839	control loop
0.8136518145	iron
0.8136418167	user supplied
0.8136393097	empirical evidence
0.8136346995	altruism
0.8136191170	evolvable
0.8136030574	wlans
0.8135935420	officer
0.8135785726	sequence dependent setup
0.8135769023	latin
0.8135691332	nlos
0.8135610549	object localization
0.8135414105	nation
0.8135254664	boolean formulas
0.8135157577	communication systems
0.8135075055	safety critical systems
0.8134950225	appraisal
0.8134899553	tem
0.8134753113	relative motion
0.8134598899	set intersection
0.8134409310	topological map
0.8134212695	inflection
0.8134169075	tuberculosis
0.8134141000	evolutionary game
0.8134114476	closed loop control
0.8134094957	ics
0.8134093390	rat
0.8134059668	armed
0.8133863299	rate control algorithm
0.8133489357	transition systems
0.8133293043	tree topology
0.8133267572	maximal frequent
0.8133169098	multi homing
0.8133117322	pupil
0.8133068373	activation functions
0.8133000975	dcf
0.8132935398	scientific applications
0.8132894525	local feature
0.8132871080	transform coding
0.8132863728	www
0.8132793107	eclipse
0.8132748526	classifier fusion
0.8132466728	fem
0.8132338914	cartesian
0.8132300767	pdes
0.8132205018	educational resources
0.8132189856	gpu based
0.8131907239	digital signatures
0.8131823454	color vision
0.8131679092	physiological signals
0.8131606556	fiction
0.8131413704	sun
0.8131351278	cmos logic
0.8131345489	boiler
0.8131195291	republic
0.8131111349	vis
0.8130994751	filaments
0.8130956464	wmn
0.8130950797	umbrella
0.8130885144	fully polynomial time approximation scheme
0.8130777871	human centric
0.8130714996	distributed channel access
0.8130694659	portrait
0.8130627804	random graph
0.8130407859	tdma
0.8130122605	personal computers
0.8130117116	folk
0.8130055469	lamp
0.8130038114	lateralization
0.8130035591	literary
0.8129706648	dp
0.8129648892	lee
0.8129335627	crises
0.8129324705	east
0.8129170568	inductively
0.8129138966	interference temperature
0.8128923370	customer service
0.8128884126	qa
0.8128814466	antivirus
0.8128545602	icts
0.8128420536	sealing
0.8128409406	distributive
0.8128369515	global convergence
0.8128301893	query terms
0.8128141505	clef
0.8128057853	germany
0.8127933611	ubiquitous computing environments
0.8127558672	sinus
0.8127530250	stone
0.8127476687	aps
0.8127102961	process variations
0.8127031260	regularization parameter
0.8126628561	face images
0.8126324521	gravitational
0.8126260714	warp
0.8126113930	dancing
0.8126012159	grid resources
0.8125990916	imperfect information
0.8125801985	mashups
0.8125751076	zernike
0.8125683873	pelvic
0.8125630369	context free
0.8125603539	scheduling algorithms
0.8125402467	tx
0.8125397530	t1
0.8125178527	field programmable
0.8125078274	point correspondences
0.8124919483	capacity achieving
0.8124887443	parental
0.8124806724	stacked
0.8124619418	transport equation
0.8124208632	expression profiles
0.8124205454	bpel
0.8124063884	performance prediction
0.8123937333	ablation
0.8123857973	remodeling
0.8123799623	rim
0.8123772824	ethics
0.8123767517	sole
0.8123743796	language independent
0.8123725836	dilution
0.8123711167	jacobi
0.8123541577	talking
0.8123522558	pilot project
0.8123495632	discrete wavelet
0.8123380497	convergence theorem
0.8123307655	musician
0.8123254618	malicious node
0.8123234290	dementia
0.8123158152	award
0.8123140843	set top box
0.8123044564	siso
0.8122882389	grinding
0.8122670911	night
0.8122579202	coastal
0.8122546868	born
0.8122492274	nlp
0.8122403355	retina
0.8122401000	robot hand
0.8122400810	subsequence
0.8122390752	korean
0.8122208432	pos
0.8122144430	diabetic
0.8122069260	interferometric
0.8121933907	hat
0.8121830128	transmission capacity
0.8121698177	pll
0.8121639545	salt
0.8121517375	lempel
0.8121420695	cognitive abilities
0.8121408495	larger scale
0.8121230893	multiresolution analysis
0.8121223400	phylogenetics
0.8121211288	photorealistic
0.8121190388	ws
0.8121152529	lucas
0.8121142413	cfo
0.8120841926	ego
0.8120793129	rayleigh channels
0.8120561732	pest
0.8120558859	hitting
0.8120430032	newtonian
0.8120176013	smith waterman algorithm
0.8120113198	multi layered
0.8120051462	variable structure
0.8119956464	harq
0.8119954645	apriori
0.8119948805	product form
0.8119713269	chief
0.8119260734	business transactions
0.8119242512	confocal
0.8119175964	stick
0.8119159077	mmr
0.8119025174	mate
0.8119022358	public policy
0.8118879494	stepwise
0.8118580943	svm based
0.8118507363	sigmoid
0.8118303666	ekf
0.8118192902	hmms
0.8118146010	newton type
0.8117493543	level parallelism
0.8117432904	similarity computation
0.8117344063	boolean function
0.8117326901	differential privacy
0.8117291744	mechanical systems
0.8117271581	inventory management
0.8117258597	town
0.8117247802	routing path
0.8117084102	steam
0.8117071809	palmprint
0.8116906194	nth
0.8116887467	low overhead
0.8116744243	conformal
0.8116696596	sad
0.8116333432	marine
0.8116295861	rhetorical
0.8116279996	dea
0.8116272902	dynamic adaptation
0.8116106309	motor control
0.8116095592	voter
0.8116077243	outerplanar
0.8116054794	transcranial
0.8115758763	induction generator
0.8115714940	neutral type
0.8115357798	business partners
0.8115078994	desert
0.8115061802	phase locking
0.8114887681	automatic parallelization
0.8114797950	smoothed
0.8114447736	theatre
0.8114360757	file formats
0.8114287451	spatial locality
0.8114115963	soft sensor
0.8113862973	zeta
0.8113782607	ecg
0.8113694285	science education
0.8113644915	kinase
0.8113616140	turkish
0.8113554794	accord
0.8113337103	ici
0.8113021059	multi label classification
0.8112861896	nose
0.8112667595	sampler
0.8112442245	chloride
0.8112400810	decentralised
0.8112375401	dct
0.8112323364	wireless systems
0.8112024383	erlang
0.8111733759	grid workflow
0.8111643728	node placement
0.8111566055	mpc
0.8111534266	community detection
0.8111512370	radial basis
0.8111483321	spatial information
0.8111424852	psd
0.8111222274	dental
0.8111107251	permittivity
0.8111092747	bittorrent
0.8110816738	search queries
0.8110744642	finite fields
0.8110731125	dft
0.8110567404	low dimensional
0.8110536680	directors
0.8110467238	experimenting
0.8110257271	calcium
0.8110250202	publishsubscribe
0.8110112288	bind
0.8110069946	double sampling
0.8110056478	delay constrained
0.8109964199	capsule
0.8109963190	vlsi design
0.8109906110	ltl
0.8109832788	l1
0.8109756227	telecommunication networks
0.8109732639	ecc
0.8109730173	epistemology
0.8109509838	french
0.8109495946	ethernet
0.8109388644	danish
0.8109348012	industrial robots
0.8109236425	utility function
0.8109120815	transformation rules
0.8109081271	rule set
0.8108669784	domain experts
0.8108629710	bloch
0.8108518483	octave
0.8108445301	service availability
0.8108407859	dwt
0.8108379071	security issues
0.8108232887	kth
0.8108024426	aop
0.8107853010	cbr
0.8107783645	ts
0.8107644786	pad
0.8107345601	bdd
0.8107339460	commission
0.8107278074	federal
0.8107276114	model driven
0.8107150166	toa
0.8106963837	dd
0.8106939323	ut
0.8106857667	relay destination
0.8106645502	diffusivity
0.8106411078	nutrition
0.8106299632	closely related
0.8106258818	architectural style
0.8106178695	knowing
0.8106081311	relay selection scheme
0.8105953477	video on demand vod
0.8105603342	europe
0.8105566109	class scatter
0.8105463687	nonlinear dynamics
0.8105387319	mud
0.8105378765	vod
0.8105179218	wood
0.8105161497	mode decision
0.8105054762	bss
0.8104648482	lip
0.8104473292	multimedia contents
0.8104312763	sky
0.8104292961	fft
0.8104246891	territorial
0.8103979322	anns
0.8103769472	neuronal activity
0.8103448427	antibiotic
0.8103409062	heuristic algorithm
0.8103272915	hedge
0.8102978649	phy
0.8102913613	cultural dimensions
0.8102813155	gui
0.8102807564	delay dependent stability
0.8102598114	cell formation
0.8102541123	distance functions
0.8102537367	som
0.8102211250	rough set model
0.8102147354	rbac
0.8102027771	bi level
0.8101854905	dialog management
0.8101831615	adaboost
0.8101719431	steer
0.8101704309	p2p based
0.8101569465	blank
0.8101293050	super peers
0.8101164034	spatial filtering
0.8101161255	snr estimation
0.8100934095	insulator
0.8100877511	normed
0.8100782506	nitrate
0.8100662981	wii
0.8100503214	kick
0.8100420976	hardware design
0.8100259775	peak current
0.8100237243	cracking
0.8100212527	singular value decomposition
0.8100117835	pepa
0.8099294078	winding
0.8099091009	delay bound
0.8098972126	semantic roles
0.8098942768	gamut
0.8098877946	parking
0.8098861945	error tolerant
0.8098668020	ethnic
0.8098609848	markovian
0.8098546856	roi
0.8098417195	iq
0.8098399787	mlp
0.8098141131	durch
0.8098111814	simply typed
0.8098098055	service orchestration
0.8097953506	svc
0.8097760744	group formation
0.8097473114	milk
0.8097472518	enumerative
0.8097359646	nns
0.8097305106	ak
0.8097084328	overlay routing
0.8097072438	delaunay
0.8097069756	document collection
0.8097067660	disability
0.8096860665	ins
0.8096853239	timit
0.8096614530	electronic devices
0.8096528879	privacy policy
0.8096452066	multiple cameras
0.8096244920	optical imaging
0.8096146691	surveillance systems
0.8096074947	multiparty
0.8096040475	multimedia communications
0.8096029315	geospatial data
0.8095808759	shared resources
0.8095679828	spotting
0.8095675149	inference rules
0.8095657976	rmse
0.8095198069	speciation
0.8094863876	small sized
0.8094707685	emission tomography
0.8094608259	forward secure
0.8094537096	virtual topology
0.8094410468	correct classification rate
0.8094227878	xml retrieval
0.8094191004	weighting scheme
0.8094043010	nur
0.8093641727	adc
0.8093628538	runoff
0.8093453333	european countries
0.8093411906	multi task learning
0.8093403285	wifi
0.8093345401	students perceptions
0.8093311647	robust estimation
0.8092975356	eu
0.8092821641	neighbor nodes
0.8092765685	drama
0.8092748162	obs
0.8092662120	solids
0.8092473832	burning
0.8092443834	climatic
0.8092415141	single chip
0.8091904838	eu funded
0.8091883821	np hard
0.8091858787	emg
0.8091811868	rice
0.8091647201	eer
0.8091549941	anecdotal
0.8091453119	assimilation
0.8091355435	doa
0.8091339381	ahp
0.8091299989	haptic interfaces
0.8090895679	utra
0.8090838149	sram
0.8090639863	quantile
0.8090547923	expression recognition
0.8090433397	nist
0.8090358050	data stream management
0.8090297021	degree distribution
0.8090266124	bump
0.8090101141	perfect matching
0.8089992766	uav
0.8089895889	macrocell
0.8089757659	weighted sum
0.8089733877	ejection
0.8089728105	laplace
0.8089606054	airway
0.8089312796	fan
0.8089106799	voronoi
0.8088786162	transduction
0.8088740255	waters
0.8088574467	iterative refinement
0.8088570751	exponential decay
0.8088539870	salient regions
0.8088389743	mcmc
0.8088362181	sim
0.8088157817	infections
0.8087970842	ipv6
0.8087547040	queens
0.8087452606	deaf
0.8087400810	snapshot
0.8087305093	jpeg
0.8087297445	experimental evaluation
0.8087256125	brownian
0.8087179236	haptic device
0.8087105749	bold
0.8087007743	geographically distributed
0.8086897008	qam
0.8086539082	fuzzy theory
0.8086439160	hepatic
0.8086380172	obstacle detection
0.8086267810	perimeter
0.8086233059	microsoft
0.8086207897	lda
0.8086207176	hand geometry
0.8086148033	harmony
0.8086138653	wmns
0.8086104916	snake
0.8085986199	big step
0.8085917223	valley
0.8085878717	relief
0.8085867893	normalizing
0.8085850762	desk
0.8085820346	retrieval effectiveness
0.8085662623	press
0.8085598383	las
0.8085466935	frame synchronization
0.8085394030	newspaper
0.8085230840	intuitionistic fuzzy set
0.8085197570	scientific data
0.8085163937	user privacy
0.8085142334	fuzzy rule based systems
0.8085141355	mrc
0.8084904883	retrospective
0.8084903668	lmis
0.8084813592	task parallelism
0.8084763121	textural features
0.8084685174	reachability analysis
0.8084596204	asymptotic analysis
0.8084424297	smear
0.8084348741	tsp
0.8083914195	genomics
0.8083913991	convex functions
0.8083760066	software intensive systems
0.8083680022	iptv
0.8083634341	soft computing techniques
0.8083573051	mediator
0.8083539615	gas phase
0.8083187832	scoring rules
0.8083180526	maximum matching
0.8083098888	semi supervised clustering
0.8082979822	umts
0.8082689964	recommending
0.8082601264	insider
0.8082575312	watermark detection
0.8082462006	expander
0.8082387525	living organisms
0.8082270890	cats
0.8082188681	functional magnetic resonance imaging
0.8082124042	disaster response
0.8082078570	hiv
0.8082071243	transmission scheme
0.8081904095	coaches
0.8081843475	multiple relays
0.8081822769	nonconvex optimization
0.8081665295	potassium
0.8081629711	cr
0.8081371084	golf
0.8081172400	fitness evaluation
0.8081118505	analytic functions
0.8081038102	coast
0.8080812762	rotation angle
0.8080582215	electrophoresis
0.8080570880	trec
0.8080507420	xilinx
0.8080490313	ovarian
0.8080475174	macroblock
0.8080468436	lmi
0.8080440597	phased
0.8080396412	futures
0.8080390375	markov decision
0.8080322084	high altitude
0.8080206981	ear
0.8080154074	abdominal
0.8080080984	op
0.8079968009	human computer interaction
0.8079896353	iris image
0.8079869529	schedulability
0.8079854956	giant
0.8079815586	summer
0.8079789703	rejection rate
0.8079659056	gel
0.8079610386	regular language
0.8079539219	intersection graphs
0.8079493835	bernoulli
0.8079475389	crlb
0.8079431956	adjacent vertices
0.8079276220	curvilinear
0.8079055489	invariant features
0.8078781732	wafer level
0.8078764657	basis functions
0.8078729170	based image retrieval
0.8078624494	hpc
0.8078602628	rw
0.8078545319	lipschitz condition
0.8078317826	sir
0.8078221363	labs
0.8078203899	war
0.8077985327	customer segmentation
0.8077953506	fec
0.8077937146	weighted sum rate
0.8077911860	fusiform
0.8077869792	football
0.8077753759	level fusion
0.8077530326	clearance
0.8077443191	gmm
0.8077061827	expert systems
0.8077035854	noc
0.8077017455	queueing delay
0.8076672343	weave
0.8076485193	laplacian
0.8076375065	vision sensor
0.8076358403	linear programs
0.8076153892	hypertext
0.8076105300	labeled data
0.8076098449	failure detectors
0.8076060561	scholar
0.8075978678	regression trees
0.8075913018	serum
0.8075769149	winner
0.8075660168	transport protocols
0.8075654665	railway
0.8075388168	nursing
0.8075348174	stair
0.8075247201	tree structures
0.8075201801	selection diversity
0.8075176459	autoregressive model
0.8074997475	neuroimaging studies
0.8074986650	plaque
0.8074780745	gene function
0.8074688998	authentication schemes
0.8074624011	single threaded
0.8074438919	uncanny
0.8074414391	cuda
0.8074356743	democratic
0.8074335539	squared euclidean
0.8074321378	binary phase shift keying
0.8074272646	topsis
0.8074271774	ea
0.8074181432	acm
0.8073990020	choquet
0.8073963318	xml based
0.8073733898	powder
0.8073703655	institutes
0.8073645537	video segmentation
0.8073638481	inter carrier interference
0.8073619360	memory usage
0.8073582734	pretty
0.8073580970	cool
0.8073562814	temporal relations
0.8073490124	pancreatic
0.8073135101	transient faults
0.8073113579	class diagram
0.8073107417	arithmetical
0.8073067477	farm
0.8072748153	data replication
0.8072746276	counseling
0.8072705244	rear
0.8072644172	texture feature
0.8072538954	business services
0.8072445596	sage
0.8072365286	nonlinear dynamic
0.8072360649	real coded genetic algorithm
0.8072271962	mn
0.8072067547	digital world
0.8072055604	built in self test bist
0.8072031085	straight lines
0.8071852551	nyquist rate
0.8071585797	interchange
0.8071554954	secondary users
0.8071305677	aloha
0.8071076568	mountains
0.8071025973	trapezoidal
0.8070988833	prostate
0.8070946895	map reduce
0.8070913069	immunodeficiency
0.8070858098	enterprise software
0.8070744213	quadruped
0.8070641729	apx hard
0.8070632095	metropolitan
0.8070390033	wheelchair
0.8070234922	privacy preferences
0.8069953506	modis
0.8069912533	shape analysis
0.8069905139	query formulation
0.8069872237	mt
0.8069591351	mb
0.8069549555	deduplication
0.8069283507	biosynthesis
0.8069241021	reporter
0.8069196613	vortex
0.8069146393	message exchanges
0.8068980025	aodv
0.8068931532	accent
0.8068881724	levitation
0.8068864506	borne
0.8068743597	classification rules
0.8068652726	oxidative
0.8068319357	dans
0.8068273844	af
0.8067978361	channel decoding
0.8067846172	pd
0.8067747616	genetics
0.8067680141	niche
0.8067612873	seidel
0.8067448859	business applications
0.8067178441	di
0.8067126400	voltage controlled
0.8066967467	wireless broadcast
0.8066938723	saving energy
0.8066929805	zhu
0.8066777714	resource constrained devices
0.8066654208	alternatively
0.8066523642	raw materials
0.8066052602	grid resource management
0.8065714025	readability
0.8065677918	western
0.8065326217	rule engine
0.8065248888	roof
0.8065026799	reactive systems
0.8064905055	line of sight los
0.8064904883	instructor
0.8064651311	pde
0.8064579380	privacy preserving data mining
0.8064561777	medium access control mac protocols
0.8064237267	qr
0.8064198387	burn
0.8064179938	pnp
0.8064132294	schema mapping
0.8064108346	femoral
0.8064098132	nonlinear optimization
0.8064093490	illusions
0.8063824020	planetary
0.8063747125	hdr
0.8063650637	dht based
0.8063633516	euler
0.8063422763	svr
0.8063409259	sd
0.8063402849	tm
0.8063361039	biometric recognition
0.8063186446	traffic light
0.8063175513	average consensus
0.8063172778	unit ball
0.8063099263	endoscopy
0.8063065113	directory
0.8062993545	mos
0.8062981632	ids
0.8062974257	aphasia
0.8062620381	medical education
0.8062307829	asymptotics
0.8062251264	subdivision schemes
0.8062153958	age groups
0.8062031804	multicast sessions
0.8061915820	replicator
0.8061903206	semi supervised classification
0.8061758530	spatial reasoning
0.8061689624	fcm
0.8061660890	depression
0.8061521457	sla
0.8061475756	workforce
0.8061034749	protein protein interaction networks
0.8060830093	erp
0.8060802726	abstract argumentation
0.8060743099	hadoop
0.8060669869	sufficient statistics
0.8060499704	crew
0.8060452777	rls
0.8060434162	steel
0.8060295286	default mode
0.8059809905	approximation operators
0.8059758298	archimedean
0.8059756117	remember
0.8059744060	pan
0.8059677528	mobile clients
0.8059675814	multicommodity
0.8059606642	pinch
0.8059124222	dsm
0.8058838888	temporal lobe
0.8058743242	structured data
0.8058544124	intra mode
0.8058465358	aberration
0.8058391533	rgb
0.8058242597	special purpose
0.8058138746	placement problem
0.8058135103	isi
0.8058116015	text corpora
0.8058025639	lazy
0.8057706437	multinational
0.8057582653	spectral density
0.8057443265	aco algorithm
0.8057109921	solar cells
0.8057049667	half plane
0.8056996926	detection algorithm
0.8056697980	interpretability
0.8056449731	declaration
0.8056152023	control laws
0.8056081228	ubiquitous environment
0.8056053569	sojourn
0.8056028135	notably
0.8055872414	singular values
0.8055619559	trellis coded
0.8055562591	temporal properties
0.8055469835	wide area networks
0.8055362394	noise injection
0.8055293286	dc gain
0.8055136567	securing
0.8055136567	ideally
0.8054998157	vanets
0.8054981152	medical center
0.8054956269	ecology
0.8054839342	fuzzy relational
0.8054803496	mineral
0.8054798011	japan
0.8054740179	color spaces
0.8054711246	coreference
0.8054681446	africa
0.8054502315	parallel execution
0.8054444591	gallery
0.8054270159	functional unit
0.8054159163	transplantation
0.8054068264	graphical interface
0.8053774366	diagonalization
0.8053720408	fuzzy association rules
0.8053656307	content based
0.8053644655	generalizing
0.8053606455	monadic
0.8053477350	endothelial
0.8053254374	alliance
0.8053186554	bubble
0.8053040389	multi valued
0.8052846193	inter vehicle
0.8052844160	object orientation
0.8052784083	quantum states
0.8052724481	physician
0.8052672683	frequent items
0.8052585420	attribute values
0.8052565146	interferometry
0.8052526409	mse
0.8052448921	dot
0.8052370415	location service
0.8051929379	sensor placement
0.8051746566	consciousness
0.8051657284	ilp
0.8051496054	ups
0.8051487708	mq
0.8051452783	counterexample
0.8051292035	wireless network coding
0.8051190718	probability density functions
0.8050951361	information entropy
0.8050856140	binary translation
0.8050833187	gaussian channels
0.8050809055	trim
0.8050741854	aligning
0.8050478795	ga based
0.8050125920	automating
0.8049895539	trap
0.8049821558	log linear
0.8049794788	probabilistic neural network
0.8049794682	wildfire
0.8049685052	radio access network
0.8049630932	basis vectors
0.8049584836	coach
0.8049504626	filament
0.8049470488	multi objective optimization problems
0.8049433502	india
0.8049403404	argumentation
0.8049400786	bci
0.8049290343	finite differences
0.8049172116	growth rates
0.8049122243	intel
0.8049079515	convergence analysis
0.8048823907	sc
0.8048823267	carbide
0.8048691924	cognitive style
0.8048613829	spine
0.8048441160	stereo camera
0.8048351092	heuristic evaluation
0.8048299203	latent dirichlet
0.8048252160	butterfly
0.8048229642	slotted
0.8048226997	intracranial
0.8048132938	line drawing
0.8048063728	virginia
0.8047981986	kim
0.8047915737	lidar
0.8047684142	rc
0.8047657240	bs
0.8047526425	aerial image
0.8047516298	personal information management
0.8047428431	shortcuts
0.8047423453	fully discrete
0.8047415409	robocup
0.8047208207	dtns
0.8046917658	jumping
0.8046847396	marching
0.8046843266	mu
0.8046547939	civic
0.8046543550	facial appearance
0.8046474788	optimal portfolio
0.8046423323	fair scheduling
0.8046404862	tourism
0.8046398003	transition matrix
0.8046279400	thermodynamic
0.8046276746	soft constraints
0.8046023324	information management
0.8045978833	naturally occurring
0.8045910345	datos
0.8045876903	microarray gene expression data
0.8045832737	statics
0.8045800971	abuse
0.8045758254	improvisational
0.8045744958	levenberg marquardt algorithm
0.8045674220	hardware architecture
0.8045630762	lending
0.8045619692	consonant
0.8045449686	epilepsy
0.8045318986	orchestration
0.8045222056	recursive programs
0.8044857370	embrace
0.8044783518	basin
0.8044767229	security mechanisms
0.8044452844	base classifiers
0.8044419979	commentary
0.8044056914	arabic
0.8044036963	preference relation
0.8043890885	demo
0.8043859548	killer
0.8043774743	ca
0.8043703544	voxel based
0.8043616673	binomial
0.8043560841	joint angles
0.8043514157	coal
0.8043470566	rst
0.8043420850	rss
0.8043294615	inelastic
0.8043161926	execution environments
0.8043028216	knowledge workers
0.8042945993	dsp
0.8042728189	combinatorial optimization problems
0.8042615632	inex
0.8042412594	cryptographic algorithms
0.8042349838	distributed coordination function
0.8042331516	clock cycles
0.8042258233	symposium
0.8042150664	recreational
0.8041948969	exemplar
0.8041639129	vehicle navigation
0.8041491104	maximum likelihood ml decoding
0.8041473177	critic
0.8041440639	splicing
0.8041351663	inter layer
0.8041238852	markov process
0.8041139918	weight vectors
0.8041110215	sinr
0.8041027569	multicarrier
0.8040665986	pattern search
0.8040630987	integrative
0.8040498638	submodular functions
0.8040389255	radix
0.8040353205	adhesive
0.8040204037	diagnosing
0.8040147084	mutation rate
0.8040062841	collocation method
0.8040022771	island
0.8039373731	drill
0.8039318630	mel
0.8039154671	vm
0.8039053651	tile
0.8038959331	li
0.8038903764	authoring tools
0.8038817282	nasa
0.8038770713	pore
0.8038629946	face image
0.8038559938	sample sizes
0.8038552269	moving vehicles
0.8038496100	single path
0.8038159019	twin
0.8038100438	single electron
0.8038059984	minimization problem
0.8037770007	expressive power
0.8037616940	group members
0.8037442417	erp systems
0.8037292914	regional scale
0.8036773902	cancer patients
0.8036736040	traffic lights
0.8036729854	remote sensing image
0.8036669179	candidate set
0.8036593001	abbreviated
0.8036540057	focus group
0.8036309904	security properties
0.8036215535	weed
0.8036205302	rician
0.8035981205	duplicate detection
0.8035956013	local descriptors
0.8035953371	rbf
0.8035808819	storytelling
0.8035798754	inference engine
0.8035642992	housing
0.8035583451	caps
0.8035522932	gene clusters
0.8035425430	entorhinal
0.8035399955	surfing
0.8035131142	multi stage
0.8035109354	hrp
0.8035036698	swap
0.8034906517	pagerank
0.8034791625	protocol stacks
0.8034565067	location based
0.8034426377	paradox
0.8034304744	inquiry
0.8034300067	soc
0.8034246638	intelligent tutoring
0.8034191771	regression model
0.8034139357	binary images
0.8033929947	en este
0.8033562840	mitral
0.8033458662	md
0.8033332045	precoder design
0.8033171803	ds
0.8033150289	spectrally
0.8033124094	rake
0.8033101971	cis
0.8032968436	arq
0.8032958266	high assurance
0.8032810198	kuhn tucker
0.8032721698	dj
0.8032658495	cargo
0.8032658367	speculative
0.8032475839	ds cdma systems
0.8032400207	nonlinear model predictive control
0.8032357700	hmm based speech synthesis
0.8032311377	tiered
0.8032255487	hd
0.8031974684	frame size
0.8031626196	tie
0.8031313864	ser
0.8031308268	knowledge repository
0.8031244951	lidar data
0.8031199521	video sharing
0.8031183850	causality
0.8031157178	synergy
0.8031150871	linear fractional
0.8030949150	mrf
0.8030873206	asr
0.8030695016	shore
0.8030509613	friend
0.8030379499	nerves
0.8030279316	discrete cosine
0.8030277569	conformational
0.8030156550	hyper heuristic
0.8030089141	development teams
0.8029964888	power allocation scheme
0.8029873406	propagation delay
0.8029828208	ne
0.8029814498	transmission rate
0.8029776373	turbidity
0.8029646899	ice
0.8029564412	vch verlag gmbh co kgaa weinheim
0.8029510057	psychologists
0.8029428644	rdf
0.8029241158	scar
0.8029031280	eating
0.8028950965	competitive ratios
0.8028825411	convex optimization problems
0.8028767705	min cost
0.8028696611	occupational
0.8028688534	depth perception
0.8028662580	infringement
0.8028641534	arbitrage
0.8028604512	energy detection
0.8028424842	spreadsheet
0.8028335573	sip
0.8028214266	doi
0.8028162910	complexity bounds
0.8028122101	mathematica
0.8027986410	fantasy
0.8027800442	indoor environment
0.8027697245	agriculture
0.8027671092	intelligent decision support
0.8027268445	taylor
0.8027067067	permanence
0.8027038294	ims
0.8026912755	administrations
0.8026764160	tobacco
0.8026539263	par
0.8026445603	anfis
0.8026306348	multi path
0.8026174497	papr
0.8025979435	writer
0.8025791876	single photon
0.8025680420	chaotic neural networks
0.8025653571	tiny
0.8025510215	lte
0.8025417415	cache management
0.8025374679	performance assessment
0.8025364555	lagrange
0.8025206252	metaprogramming
0.8025138299	bit vector
0.8025115387	level set methods
0.8025016014	test pattern
0.8024992256	aes
0.8024930741	exact inference
0.8024855392	localization algorithm
0.8024833068	lp
0.8024818317	prediction model
0.8024154893	power loading
0.8024062196	archiving
0.8023894324	fault free
0.8023557016	privacy issues
0.8023061701	aggregation operators
0.8023008618	miniature
0.8022853598	lcd
0.8022739065	recipient
0.8022679493	adaptive neuro fuzzy inference
0.8022678340	mobile network
0.8022614508	confirmation
0.8022496161	correlation matrix
0.8022357243	watershed
0.8022344312	september
0.8022212990	uci
0.8022114029	supermarket
0.8021989835	prescription
0.8021887997	nonlinear dynamical
0.8021723279	nomenclature
0.8021497317	colorectal
0.8021460149	rotary
0.8021399752	panoramic
0.8021378540	model driven software development
0.8021159413	graph based
0.8021133089	reuters
0.8020957751	imt
0.8020931014	scientific discovery
0.8020891211	energy balance
0.8020816946	state observer
0.8020719463	group decision
0.8020681606	rbf networks
0.8020544869	oz
0.8020469838	relaxing
0.8020441546	pet
0.8020166000	structuring elements
0.8020049431	spatial variation
0.8019953152	finite mixture
0.8019779339	exit
0.8019390461	orbitals
0.8019199191	steiner
0.8019180900	eeg data
0.8019158813	frame length
0.8019084811	real coded genetic
0.8019064312	modelling languages
0.8018970416	yale
0.8018963791	deflection
0.8018914246	texture features
0.8018768443	workplace
0.8018592618	compressing
0.8018554110	conditional probabilities
0.8018517094	approximation ratio
0.8018319978	trajectory estimation
0.8018064860	subthreshold
0.8017731917	software life cycle
0.8017724481	cryptosystems
0.8017536590	mass spectra
0.8017250498	jam
0.8017054085	taiwan
0.8016869498	blindness
0.8016834667	ripple
0.8016724249	service oriented applications
0.8016611429	boundary integral
0.8016549664	loss function
0.8016465018	spam detection
0.8016118714	heel
0.8016006083	tech
0.8016000375	bp
0.8015986227	automated verification
0.8015865062	snomed
0.8015647005	mechanism design
0.8015566723	centroid
0.8015526565	software products
0.8015523247	switching costs
0.8015513102	risk factor
0.8015356375	lmmse
0.8015232527	medical record
0.8015198576	throughput gain
0.8015124130	detached
0.8014967978	adic
0.8014823444	simo
0.8014646872	nvidia
0.8014603296	high data rate
0.8014559787	lanes
0.8014550212	feature fusion
0.8014387235	stamp
0.8014357056	studios
0.8014282189	mixed pixels
0.8014097630	grating
0.8013988375	embedded applications
0.8013918117	cart
0.8013408533	therapists
0.8013399283	av
0.8013240987	facilitation
0.8013226056	gold
0.8013200144	cervical
0.8012850784	police
0.8012825522	mimo detection
0.8012798957	equivalence classes
0.8012775254	quad
0.8012703438	german
0.8012666553	escape
0.8012641947	extended kalman
0.8012443907	linear systems
0.8012437187	scheduling scheme
0.8012255200	queue size
0.8012208427	cleaner
0.8012048194	cf
0.8011490153	legged
0.8011461090	variable gain
0.8011401392	bundling
0.8011344379	stereo pair
0.8011298668	shared protection
0.8011254408	terrorism
0.8011113318	enterprise integration
0.8011008409	accelerating
0.8010983965	emotional expressions
0.8010941597	iptv services
0.8010862101	nilpotent
0.8010710117	sa
0.8010674459	weighted graphs
0.8010458177	light sources
0.8010424842	canopy
0.8010414402	regulatory network
0.8010383103	mems
0.8010344150	committee
0.8010335993	printer
0.8010102396	augmenting
0.8010065161	opportunistic spectrum
0.8010036721	laboratories
0.8010005224	network coded
0.8009753079	ge
0.8009469314	possibilistic
0.8009343725	adaboost algorithm
0.8009293983	high priority
0.8009111948	vein
0.8009076710	multi class classification
0.8009055728	shadow detection
0.8008533003	coordination mechanisms
0.8008365062	dmb
0.8008327710	binary trees
0.8008200308	problem based learning
0.8008163801	model selection
0.8008128898	wsns
0.8007798532	uv
0.8007783275	mas
0.8007523980	transverse
0.8007498454	cp
0.8007125967	technology acceptance model
0.8006823149	state feedback control
0.8006812218	shrink
0.8006728039	voip services
0.8006556126	mobile manipulators
0.8006529844	constraint based
0.8006454347	sum rule
0.8006417550	control systems
0.8006379833	uml
0.8006123967	knowledge management systems
0.8006117459	social annotation
0.8005962291	pandemic
0.8005885839	circuit switched
0.8005796505	long duration
0.8005757786	diversity order
0.8005744719	average packet delay
0.8005527001	weighting schemes
0.8005414620	ica
0.8005357143	c45
0.8005328151	wired networks
0.8005174940	gp
0.8004947655	hybrid particle swarm optimization
0.8004886250	arq protocols
0.8004870700	business opportunities
0.8004853165	channel estimation error
0.8004782018	traffic pattern
0.8004601787	parameter dependent
0.8004482588	highest priority
0.8004450609	los
0.8004242745	facebook
0.8004148712	design rationale
0.8004022144	arts
0.8003990934	fusing
0.8003963663	feature ranking
0.8003846856	feature selection algorithm
0.8003832633	condition monitoring
0.8003818878	voice over ip voip
0.8003782607	gis
0.8003750355	caterpillar
0.8003690102	human activities
0.8003519553	ic
0.8003514157	dance
0.8003428629	airborne
0.8003404386	boundary element
0.8002880744	gene sets
0.8002784501	grasp
0.8002659246	location awareness
0.8002603071	bilingual
0.8002510406	geodesic
0.8002208160	corrective
0.8002118382	control law
0.8001929266	grid computing environments
0.8001855184	user generated
0.8001840223	java language
0.8001764848	collision attack
0.8001623377	visceral
0.8001394864	low delay
0.8001346493	average precision
0.8001207897	rna
0.8001206044	sparse signals
0.8000879212	topology aware
0.8000877807	grid based
0.8000873115	blue
0.8000723700	integer variables
0.8000532375	tcp
0.8000413080	high throughput sequencing
0.8000091654	habitat
0.8000070191	fatigue life
0.7999962943	smes
0.7999959490	update propagation
0.7999901726	language models
0.7999589430	hla
0.7999402222	lan
0.7999093739	editors
0.7999092351	brain structures
0.7998741954	ocean
0.7998733864	backpropagation
0.7998618169	fat
0.7998388130	mc
0.7998371963	broker
0.7998362337	beauty
0.7998259245	gift
0.7998161872	earthquake
0.7998087364	montgomery
0.7997972953	joint detection
0.7997881453	japanese
0.7997851420	boolean
0.7997747139	wide angle
0.7997746281	el
0.7997570151	trans
0.7997485394	performance enhancement
0.7997246377	nonlinear distortion
0.7997171065	algo
0.7997170571	single phase
0.7997022399	grid resource
0.7996937382	perfect graphs
0.7996903663	coding theory
0.7996780453	rms
0.7996747444	median graph
0.7996700417	robust speech recognition
0.7996698967	surround
0.7996579103	multidimensional data
0.7996532512	lymph
0.7996255501	axiomatic
0.7996245457	motorcycle
0.7996207454	ash
0.7996035949	mechanical engineering
0.7995974891	dissolved
0.7995679490	breaking
0.7995618469	prioritized
0.7995538321	collectors
0.7995426064	cw
0.7995403795	hp
0.7995337745	radio resource
0.7995008555	authorship
0.7994952498	optics
0.7994939423	pdf
0.7994938441	refinery
0.7994586276	mock
0.7994568091	image categorization
0.7994327131	implicit feedback
0.7994265220	echo
0.7994238885	artmap
0.7994214426	tcp performance
0.7993763427	vlsi
0.7993680877	cave
0.7993549443	user input
0.7993384169	multiparty computation
0.7993068558	moderate resolution imaging spectroradiometer
0.7993013503	multi granular
0.7992877652	bladder
0.7992801804	g1
0.7992623121	scroll
0.7992213155	psnr
0.7991996368	text corpus
0.7991856802	negative selection
0.7991649325	daily life
0.7991596614	venture
0.7991416536	bi criteria
0.7991392933	planck
0.7991165652	enforcing
0.7991094484	belt
0.7991045830	hand movement
0.7990918189	unifying
0.7990602327	space filling
0.7990559656	dirichlet
0.7990481826	df
0.7990456291	speckle
0.7990403970	sketch based
0.7990236453	fault tree
0.7990228274	violent
0.7990192850	software project management
0.7989884024	foraging
0.7989690517	real option
0.7989655521	h264avc
0.7989596134	lead optimization
0.7989438931	queuing theory
0.7989352030	forum
0.7989325518	lut
0.7989048428	wolf
0.7989047236	membrane proteins
0.7988939340	bringing
0.7988926862	fuzziness
0.7988751767	trace driven
0.7988701487	radiative
0.7988663883	multichannel
0.7988610665	wastewater
0.7988610164	hidden terminal problem
0.7988490740	parsimonious
0.7988321795	soccer
0.7988321351	panels
0.7987910114	oracles
0.7987853775	van
0.7987821076	generalization ability
0.7987791311	manet
0.7987771705	enterprise systems
0.7987770643	transfer functions
0.7987591879	ultrasonic sensors
0.7987578255	crawling
0.7987549826	territories
0.7987418272	claw free
0.7987242040	proactive
0.7986988071	multi core architectures
0.7986744063	technol
0.7986712799	finnish
0.7986398439	inflammatory
0.7986285027	set agreement
0.7986253311	wisdom
0.7986235128	aggregating
0.7986166986	clonal
0.7986007211	natural images
0.7985801793	imagine
0.7985606601	spiking neural p systems
0.7985510215	sql
0.7985410620	rs
0.7985320625	queens university belfast
0.7985296198	stability region
0.7985191667	crown
0.7985137077	ddos
0.7985009975	svms
0.7984922120	mathematical modeling
0.7984759563	search strategies
0.7984685873	radiotherapy
0.7984386246	microelectromechanical
0.7984361643	ct
0.7984292961	mpi
0.7984259557	aerospace
0.7984254530	micron
0.7984228248	noun
0.7984144618	mother
0.7984089438	birds
0.7983927931	junior
0.7983578182	individual differences
0.7983469882	introductory
0.7983401192	rt
0.7983393643	breadth first search
0.7983346828	secure communications
0.7983342183	nonlinear differential equations
0.7983240912	arabic text
0.7983049330	execution engine
0.7983029016	stenosis
0.7983001783	brakes
0.7982922841	statistical timing
0.7982773428	technical support
0.7982400271	logic gate
0.7982284941	data hiding scheme
0.7982140816	strategic decisions
0.7981854019	frequency scaling
0.7981683221	fine scale
0.7981647201	lti
0.7981610515	costing
0.7981472331	sampling rate
0.7981283173	head movement
0.7981188091	qc ldpc
0.7981128620	indigenous
0.7980833871	phylogenetic networks
0.7980778715	approximate reasoning
0.7980728536	hit
0.7980660759	marketplace
0.7980469264	sampled data
0.7980438209	telecom
0.7980335391	settling
0.7980308394	hci
0.7980158107	fuzzy rough
0.7979943667	component based
0.7979941497	random access memory
0.7979863952	small sample size
0.7979822933	incomplete data
0.7979624841	image descriptors
0.7979585931	gradient based
0.7979569054	sine
0.7979373430	business strategy
0.7979340715	firewall
0.7979130865	mobile internet
0.7979102113	criminal
0.7979083028	binocular
0.7978989907	process calculi
0.7978798102	beacon
0.7978765379	wireless sensor node
0.7978736614	distance metrics
0.7978559558	ls
0.7978457097	volcanic
0.7978448986	beta
0.7978439003	spanner
0.7978349820	widely linear
0.7978179656	tree width
0.7977871270	sensor array
0.7977784048	freight
0.7977477915	biological networks
0.7977319176	computer supported collaborative learning
0.7977310352	hypercube
0.7977039215	computational complexity
0.7976683296	dem
0.7976570917	multi processor
0.7976381688	upset
0.7976358718	labeled transition
0.7976218466	injective
0.7976130333	batch scheduling
0.7976114404	nanotechnology
0.7975953182	burgers
0.7975839690	marginal distributions
0.7975611210	cluster centers
0.7975581088	aggregate throughput
0.7975558880	channel occupancy
0.7975508382	manets
0.7975502797	partial differential
0.7975457790	shah
0.7975277555	multilingual
0.7975259024	college
0.7975219332	sex
0.7974982830	multi target tracking
0.7974974700	brushless
0.7974967132	cumulative distribution function
0.7974776357	delivery ratio
0.7974745005	embryonic
0.7974730120	digital government
0.7974090308	urinary
0.7974039750	schrodinger
0.7973928426	inpainting
0.7973869884	pa
0.7973868446	blast
0.7973839969	jamming
0.7973802258	grand
0.7973495150	cad
0.7973467910	user oriented
0.7973227228	emergency situations
0.7973223863	tall
0.7972936820	long term evolution
0.7972913627	adherence
0.7972901244	cmos technologies
0.7972820934	valence
0.7972762440	fpga implementation
0.7972753135	console
0.7972668469	electro
0.7972628027	policy making
0.7972585063	fcc
0.7972470185	cost effective
0.7972263602	capacitated
0.7972257083	cortical surface
0.7972000627	stereo images
0.7971946571	delay constraint
0.7971863681	linguistics
0.7971786934	portal
0.7971596438	binary phase shift keying bpsk
0.7971208783	lyapunov stability theory
0.7970569168	structure preserving
0.7970299424	cost benefit analysis
0.7970252257	conversation
0.7970134391	environmentally
0.7969960889	faculty
0.7969840338	basis function
0.7969625520	boreal
0.7969459262	bei
0.7968969816	013m cmos
0.7968942373	conjunctive
0.7968743953	os
0.7968593294	reduced order
0.7968356631	assisting
0.7968328641	cepstral
0.7968257991	club
0.7968217959	mobile router
0.7967956448	als
0.7967757192	gaussian channel
0.7967655145	random testing
0.7967646276	math comput
0.7967551962	palsar
0.7967526015	bp algorithm
0.7967401817	vibration signal
0.7967401727	sensory motor
0.7967286241	weapons
0.7967156671	churn
0.7966871354	organ
0.7966868748	biochemical networks
0.7966832372	crash
0.7966644060	reservoir
0.7966483060	traffic traces
0.7966369456	ann
0.7965745971	amino acid sequence
0.7965484208	extracellular
0.7964967840	category theory
0.7964879319	dimming
0.7964682843	separability
0.7964645812	lighting conditions
0.7964506985	meantime
0.7964299872	probabilistic reasoning
0.7964261245	global optimization problems
0.7964254997	ventilation
0.7964048930	project based learning
0.7964024541	valves
0.7964014423	hopf
0.7963899872	eeg
0.7963862864	resource allocation algorithm
0.7963800154	fossil
0.7963798823	evacuation
0.7963739744	weight matrices
0.7963670094	ergonomics
0.7963660472	minority
0.7963659238	quality indicators
0.7963598931	equilibrium point
0.7963432365	cube
0.7963340404	electoral
0.7963247488	orbitofrontal
0.7963181063	puzzle
0.7963062495	thrust
0.7962966151	input variables
0.7962919734	spice
0.7962902354	meter
0.7962898081	frame aggregation
0.7962859665	ma
0.7962686696	weather conditions
0.7962551542	extremum
0.7962386934	ultrasonic
0.7962361304	coronal
0.7962245961	soa based
0.7961899484	crawler
0.7961838773	data access
0.7961836284	computerized
0.7961783534	multiplicative
0.7961587605	configuring
0.7961475322	human movement
0.7961473426	catalytic
0.7961291642	encryption key
0.7961023928	infra
0.7960795176	street
0.7960794582	multiobjective programming
0.7960775203	control loops
0.7960724137	tandem
0.7960559822	relative velocity
0.7960534987	echelon supply
0.7960378438	user experiences
0.7960360743	low jitter
0.7960355991	conorms
0.7960348375	query translation
0.7960227316	web based learning
0.7960205059	question answering systems
0.7960166402	ar
0.7960074593	optimistic
0.7959940255	assistant
0.7959924084	enumerable
0.7959671890	power grids
0.7959569922	training samples
0.7959424848	hierarchical organization
0.7959217144	lifelong
0.7959171105	obesity
0.7958775926	dendritic
0.7958536393	keyword based
0.7958534313	clause learning
0.7958426602	change impact
0.7958177572	interesting patterns
0.7957991183	rule mining
0.7957804386	systolic
0.7957692072	pulsed
0.7957654274	pearson
0.7957522801	management systems
0.7957460890	translating
0.7957453791	civil
0.7957382395	thumb
0.7957353869	institute
0.7957186264	endoscopic
0.7957137440	gradual
0.7957047721	ibm
0.7956978239	enduring
0.7956966320	public access
0.7956852221	single machine
0.7956795428	frequency selective fading channel
0.7956740470	spatiotemporal
0.7956423879	preemptive
0.7956327503	turbine
0.7956156960	transformer
0.7956121257	financial time series
0.7956099283	highly sensitive
0.7956067989	insulation
0.7956056461	af relaying
0.7955494006	moore
0.7955484451	oxides
0.7955249260	situational
0.7955150402	test sets
0.7955147635	itu
0.7955049323	liberal
0.7954932113	projective space
0.7954923833	parallel corpus
0.7954874915	formal analysis
0.7954831975	search tree
0.7954500944	echo state
0.7954468353	ab
0.7954391276	valued functions
0.7954252257	hashing
0.7954183760	event correlation
0.7954044915	ir
0.7953927025	cs
0.7953880021	symbolic representation
0.7953820215	es
0.7953721431	funds
0.7953473943	lms
0.7953451806	kuhn
0.7953347845	coordinating
0.7953342404	self organizing maps
0.7953210472	communication protocols
0.7952992810	routing algorithms
0.7952953591	cpg
0.7952783939	local minima
0.7952612526	wiki
0.7952570490	early detection
0.7952414646	una
0.7952379892	unknown input
0.7952166408	hamiltonian
0.7952070117	class labels
0.7951933390	waterman
0.7951785603	unit tests
0.7951711398	auctions
0.7951582369	economics
0.7951503060	application development
0.7951400305	convex programming
0.7951319996	mr
0.7951228999	atmosphere
0.7951216993	oss projects
0.7951009438	pricing strategies
0.7950978476	releasing
0.7950780145	state spaces
0.7950583412	noise margin
0.7950532878	prism
0.7950496870	initial guess
0.7950418243	video coding standards
0.7950333351	microscope
0.7950260402	preserve privacy
0.7950186463	pca
0.7949961170	generalisation
0.7949950995	river
0.7949870254	organizational structure
0.7949795227	agricultural
0.7949661621	intermolecular
0.7949340951	lyapunov theory
0.7949199159	multi core processor
0.7949186988	averse
0.7949180931	product lifecycle
0.7949051271	affect recognition
0.7948884287	cyber
0.7948812568	view dependent
0.7948651722	preconditioned
0.7948636743	doppler
0.7948624383	multithreaded
0.7948593402	reputation management
0.7948447603	polynomial approximation
0.7948349919	synthesized speech
0.7948288892	social skills
0.7948261292	voip
0.7948192107	clustering algorithms
0.7948138637	graph representation
0.7948135621	dimer
0.7948028993	int
0.7947981222	forensics
0.7947910063	fission
0.7947846060	computing resources
0.7947570410	rectangle
0.7947436171	disequilibrium
0.7947427380	abelian
0.7947405681	tile set
0.7947358270	human walking
0.7947233209	bilinear
0.7947162269	imagination
0.7947066334	user driven
0.7946970911	prevention
0.7946950808	memory subsystem
0.7946929464	industrial strength
0.7946859219	google
0.7946724481	inserting
0.7946709762	weapon
0.7946707714	sand
0.7946496951	partnership
0.7946481526	tabletop
0.7946338136	csi
0.7946186129	feedback loop
0.7946136851	coil
0.7946099739	threading
0.7946045569	minimal cost
0.7945963970	attribute selection
0.7945856921	brain imaging
0.7945758471	dos
0.7945643362	gear
0.7945399528	deprivation
0.7945387290	keystroke
0.7945253895	blog
0.7945211472	gps
0.7945194299	low power consumption
0.7945151538	amorphous
0.7945023432	kitchen
0.7944812639	wlan
0.7944756792	nonverbal
0.7944580772	overcoming
0.7944391513	sigma
0.7944332524	parallel applications
0.7944318415	social contexts
0.7944311823	rescue
0.7944170739	series expansion
0.7943933499	mri
0.7943862610	geo
0.7943751735	braking
0.7943623396	volcano
0.7943481526	calculi
0.7943470280	da
0.7943351292	bar
0.7943346614	graph rewriting
0.7942899868	china
0.7942855615	este articulo
0.7942812333	vocal
0.7942811680	riccati
0.7942773995	gram
0.7942770915	learning object
0.7942702149	exoskeleton
0.7942571786	categorical data
0.7942198874	assistive
0.7942193324	citizen
0.7942076789	laptop
0.7942047304	metamodel
0.7941985480	knn
0.7941922287	orthogonal space time block
0.7941593892	cascade
0.7941555730	department
0.7941448021	citation analysis
0.7941435403	math
0.7941341508	announcement
0.7941270724	user feedback
0.7940959290	capacitive
0.7940379503	happy
0.7940255077	redundancy allocation
0.7940193363	cross correlations
0.7940162661	loop filter
0.7940116345	schematic
0.7940101177	wdm
0.7939971401	pseudorandom
0.7939842782	bipolar
0.7939832541	heterogeneous sensor networks
0.7939608665	unmanned
0.7939591992	multiuser interference
0.7939548401	glass
0.7939532392	speech acts
0.7939526713	continuous speech recognition
0.7939408004	recent advances
0.7939308470	les
0.7939175968	ridge
0.7939071985	neural network based
0.7938889797	platform specific
0.7938781858	soc designs
0.7938677374	continuance
0.7938660323	ml
0.7938627322	ios
0.7938606628	success probability
0.7938543380	mo
0.7938408819	elongation
0.7938374223	link scheduling
0.7938160497	annotating
0.7938085779	service oriented systems
0.7937980868	critical paths
0.7937843701	viewer
0.7937827550	achievable rate region
0.7937693719	ac
0.7937688078	nasal
0.7937624336	statistical independence
0.7937586523	virtual character
0.7937511428	leisure
0.7937447034	nano
0.7937293532	fdma
0.7937248871	unrolling
0.7937127055	joint angle
0.7936790199	hopfield network
0.7936775812	user interactions
0.7936716582	photography
0.7935956078	long running
0.7935879700	common mode
0.7935821725	prior experience
0.7935776497	video frame
0.7935753381	wimax
0.7935750822	playstation
0.7935650162	concept mapping
0.7935612672	chase
0.7935584447	financing
0.7935460042	lans
0.7935388393	lg
0.7935386106	maximum ratio combining
0.7935335903	equivalently
0.7935297070	set top boxes
0.7935260564	pairings
0.7935177533	sift
0.7935148678	earths
0.7935134682	quotient
0.7934778716	user modeling
0.7934632179	american
0.7934605887	truss
0.7934576445	data processing
0.7934573810	aids
0.7934476730	lead times
0.7934354393	force closure
0.7933986309	peer reviewed
0.7933908864	location information
0.7933865301	fish
0.7933801975	wave equations
0.7933781195	stability criteria
0.7933747302	normative
0.7933661682	province
0.7933653916	quaternion
0.7933556990	usa
0.7933513599	hexagonal
0.7933481526	syndrome
0.7933321077	appl
0.7933243292	patterned
0.7933235151	fuzzy systems
0.7932933723	mode selection
0.7932896065	valued logic
0.7932722234	power spectra
0.7932664586	development projects
0.7932656522	appearance based
0.7932558872	gpus
0.7932390776	chair
0.7932355638	spectrally efficient
0.7932271429	st
0.7932195276	poisson
0.7932090000	english translation
0.7931829575	tracking controller
0.7931542298	administration
0.7931466941	shooter
0.7931210775	slew
0.7931149863	fine grained access control
0.7930955291	human resources
0.7930785928	fluorescence
0.7930692944	principal agent
0.7930692236	stabilizability
0.7930639021	temporal constraints
0.7930571120	power constraint
0.7930425753	accountability
0.7930221453	anatomy
0.7930219690	code division multiple access mc cdma
0.7930073390	royal
0.7930003985	gossip
0.7929829587	scale invariant feature
0.7929795503	service creation
0.7929638849	single user
0.7929603562	proportional integral derivative
0.7929536423	dimensional scaling
0.7929412221	large datasets
0.7929338090	improvisation
0.7929189125	multi core cpus
0.7929144857	worker
0.7928971677	domain expert
0.7928952433	ship
0.7928757321	correlation based
0.7928589451	pickup
0.7928550747	diagnosability
0.7928426040	nand
0.7927940553	reduced rank
0.7927934262	cruise
0.7927810349	monocular
0.7927664796	mating
0.7927647652	conversational agents
0.7927619068	responsive
0.7927572957	terrestrial
0.7927557078	subway
0.7927512772	ap
0.7927466693	programming paradigm
0.7927432824	diagonally
0.7927335932	program analysis
0.7927317181	pi
0.7927186503	free text
0.7927133173	software design
0.7927070884	grey
0.7927009703	cost minimization
0.7927008983	mhz
0.7926948428	weight distribution
0.7926861005	compressor
0.7926790360	thermodynamics
0.7926769596	watch
0.7926698756	corona
0.7926635953	organic
0.7926336015	random subspace
0.7926170567	protein domains
0.7926013172	campus
0.7925955280	coverage criteria
0.7925850265	mmse
0.7925846745	rhythm
0.7925750822	saharan
0.7925715792	recovering
0.7925498082	design flow
0.7925465236	fuse
0.7925369950	multiclass
0.7925336353	internet based
0.7925302111	data delivery
0.7925283426	reusing
0.7925114529	fixed gain
0.7925089983	hong
0.7925016177	decomposing
0.7924909861	reducing power consumption
0.7924657240	ai
0.7924426691	corrector
0.7924263848	equity
0.7924104458	medial prefrontal
0.7923996951	template based
0.7923840594	automatic segmentation
0.7923778899	magnet
0.7923676396	microsoft windows
0.7923616754	sat based
0.7923591198	hyper
0.7923567828	ancient
0.7923551522	mahalanobis
0.7923441063	positive feedback
0.7923061370	joint decoding
0.7922974481	hardwaresoftware
0.7922879164	statistical parametric
0.7922690145	scene change
0.7922625956	electrostatic
0.7922623528	casting
0.7922091276	singing
0.7922033826	fibre
0.7922022464	office
0.7921970965	self organizing map
0.7921513698	matlab
0.7921467657	transmission power control
0.7921172961	temporal gyrus
0.7921153528	risk measures
0.7921029944	hurricane
0.7921014726	mirror
0.7920913859	histogram based
0.7920877883	end hosts
0.7920818705	liver
0.7920578694	push
0.7920357278	multicasting
0.7920320195	development effort
0.7920127605	partial occlusion
0.7920120934	diabetes
0.7920031346	house
0.7919969103	virtual channels
0.7919757747	multispectral image
0.7919743432	nitrogen
0.7919630933	automatic differentiation
0.7919478836	iso
0.7919266025	ghz
0.7919091448	conferencing
0.7918965929	lexical semantic
0.7918888797	professor
0.7918753586	geodetic
0.7918668935	data storage
0.7918465558	quantum communication
0.7918408191	race
0.7918408161	abstraction level
0.7918383891	spatial variability
0.7918278874	mitigation
0.7918182543	cryptographic key
0.7917967450	iris
0.7917759024	convolutional
0.7917638054	cochlear
0.7917555403	initiative
0.7917515470	mood
0.7917395861	consoles
0.7917380225	motion vectors
0.7917232997	haskell
0.7917216046	agency
0.7916847796	group size
0.7916664122	p2p applications
0.7916560319	linguistic features
0.7916443255	blended
0.7916308177	imputation
0.7915840624	sensor selection
0.7915759556	radiological
0.7915432294	tectonic
0.7915228458	mumford
0.7914983649	oracle
0.7914889656	sediment
0.7914774862	measurement noise
0.7914693520	cathode
0.7914663067	formal description
0.7914633165	barrel
0.7914603637	low contrast
0.7914513625	video contents
0.7914493205	triple
0.7914450466	search result
0.7913927737	emerging technologies
0.7913865709	dna
0.7913792172	cascaded
0.7913745771	object trajectories
0.7913654828	awgn
0.7913513918	digital content
0.7913394691	serotonin
0.7913256581	congestion aware
0.7913027133	voice traffic
0.7912915741	dune
0.7912849616	pc
0.7912821001	meta analysis
0.7912782294	dialects
0.7912376660	registration error
0.7912275710	pipelined
0.7912235295	chem
0.7911977770	multimedia data
0.7911943715	base pairs
0.7911923585	factory
0.7911811201	green
0.7911343604	unification
0.7911150196	ground based
0.7911148940	tv
0.7911137116	deblurring
0.7911065177	spin
0.7910928350	switched systems
0.7910895660	poster
0.7910625286	fuzzy c means clustering
0.7910589283	differentiating
0.7910560997	block based
0.7910526781	microfluidic
0.7910482912	security incidents
0.7910293986	project success
0.7910215246	tcp traffic
0.7910119769	colon
0.7909990104	similarity based
0.7909700204	polymerase
0.7909663088	literate
0.7909548436	optical network
0.7909374585	dynamic bayesian network
0.7909356812	lambda
0.7909312764	rental
0.7909305618	ppi networks
0.7909211053	lexicon
0.7909064510	provenance
0.7908881056	variability management
0.7908790828	parallel io
0.7908728248	timetabling
0.7908716499	frequency estimation
0.7908532320	ground state
0.7908468625	sys
0.7908454476	noise ratio sinr
0.7908414733	missile
0.7908350668	job shop scheduling problems
0.7908323026	unscented
0.7908271307	corollary
0.7908127728	dihedral
0.7907921487	discrete optimization
0.7907693586	failure prediction
0.7907666669	circuit board
0.7907331251	yeast
0.7907213073	km
0.7907196470	chip level
0.7907187545	training set
0.7907160678	capacity gain
0.7907154829	message transmission
0.7906803206	binary strings
0.7906752695	thematic
0.7906538625	goal driven
0.7906396568	boolean operations
0.7906352154	snr
0.7906131166	lecture
0.7906128818	thermal noise
0.7905985754	mathematical modelling
0.7905947522	electroencephalogram
0.7905835522	honey
0.7905718867	stokes
0.7905710084	noise tolerant
0.7905347010	conceptual models
0.7905251010	acceptor
0.7905216644	denotational
0.7905099844	international
0.7905057458	sensor nodes
0.7904946752	kappa
0.7904915324	autonomous robotic
0.7904861579	null distribution
0.7904544913	spring
0.7904496189	radio communication
0.7904393670	finance
0.7904349522	calibration method
0.7904348900	ionization
0.7903768303	continuous queries
0.7903763931	homography
0.7903707433	dht
0.7903685637	neural responses
0.7903671553	financial risk
0.7903644245	fisher
0.7903531787	layer assignment
0.7903529111	orbital
0.7903316797	tau
0.7903261696	rdf data
0.7903228981	latent space
0.7903169156	sciences
0.7903134159	robust fault detection
0.7902933499	soa
0.7902888860	nonlinear control
0.7902880119	truncation
0.7902847945	rater
0.7902804547	multi site
0.7902591773	web service selection
0.7902495163	mimicry
0.7902488732	nice
0.7902446914	virtual mimo
0.7902393380	scientist
0.7902373826	dust
0.7902090700	minimum power
0.7902059117	heterogeneous wireless sensor networks
0.7902031777	rock
0.7901996026	functional verification
0.7901938703	diffraction
0.7901688885	homotopy
0.7901676074	information society
0.7901617928	uwb
0.7901534723	zoom
0.7901485682	social behavior
0.7901460743	sexual
0.7901387486	frequency range
0.7901280468	soliton
0.7901034322	story
0.7900917286	anchor
0.7900724377	fingerprint
0.7900526781	entailment
0.7900468167	sleeping
0.7900300929	atom
0.7900084859	tournament
0.7899892314	figure
0.7899834281	interactive applications
0.7899699868	observing
0.7899419533	multiview
0.7899268122	door
0.7899259434	dijkstras
0.7899248932	arterial
0.7899226674	ultra wide
0.7899179535	neighboring blocks
0.7899055067	nonlinear diffusion
0.7899043627	secrecy rate
0.7898985698	common ground
0.7898940482	multimedia traffic
0.7898896209	book
0.7898679810	noise tolerance
0.7898575314	arc
0.7898566520	unstructured text
0.7898350193	quasi orthogonal
0.7898333496	granular
0.7898284595	cdma
0.7898269149	catalog
0.7898078418	computational grid
0.7897888738	concert
0.7897591440	stream mining
0.7897571324	quantifying
0.7897238770	scenario based
0.7897164882	lung
0.7897123440	accelerator
0.7897071957	wi
0.7896938284	multivalued
0.7896810537	j math anal appl
0.7896733225	mixing matrix
0.7896518653	bit depth
0.7896418005	grass
0.7896313119	canal
0.7896049682	channel aware
0.7895814974	ventures
0.7895750516	manually curated
0.7895739346	fpgas
0.7895721011	notes
0.7895695539	regularized
0.7895679687	permutation graphs
0.7895631412	virtual private
0.7895554778	atmospheric
0.7895501195	mixed effects
0.7894952687	completion times
0.7894897235	element set
0.7894845286	matrix decomposition
0.7894702102	vehicular communication
0.7894654850	valve
0.7894520210	immersive
0.7894468713	w3c
0.7894423390	radioactive
0.7894364381	ux
0.7894324033	human skin
0.7894179959	traffic safety
0.7893947995	condition numbers
0.7893784576	regression problems
0.7893777625	distribution function
0.7893763945	cryptographic protocol
0.7893749319	pro active
0.7893721330	cage
0.7893591361	neutrality
0.7893490219	traversal patterns
0.7893451502	disc
0.7893430244	freely accessible
0.7893318811	power gated
0.7893229812	lagrangian
0.7892823210	residual error
0.7892650372	restraint
0.7892590964	layered architecture
0.7892487870	machining process
0.7892459921	interaction techniques
0.7892370882	variable ordering
0.7892044761	turing
0.7891964395	unsupervised classification
0.7891949333	econometric
0.7891875506	analyst
0.7891770261	random beamforming
0.7891458177	highly scalable
0.7891343363	svm
0.7891295058	peer to peer p2p
0.7891182527	intergenerational
0.7890924512	wireless multi hop
0.7890747302	piezoelectric
0.7890725472	spot
0.7890575656	rule based reasoning
0.7890559430	inferring
0.7890494599	multimedia information retrieval
0.7890423858	medium access control mac protocol
0.7890422060	cloud
0.7890191812	rapid response
0.7890143572	heap
0.7889567525	learning materials
0.7889490679	mark
0.7889417587	polar
0.7889359100	cross validated
0.7889320350	wikipedia
0.7889248550	game engine
0.7889203532	fir
0.7889148026	bargaining
0.7889107161	resource providers
0.7888870535	soap
0.7888839451	holonomic
0.7888727322	doubly fed
0.7888713105	minimum length
0.7888708494	resonant
0.7888678355	anaphora
0.7888593993	image watermarking scheme
0.7888572735	chemistry
0.7888548196	communication technology ict
0.7888218432	automobile
0.7888050768	deontic
0.7888016620	literature reviews
0.7887556889	microwave
0.7887527140	magnetic fields
0.7887476266	evolutionary dynamics
0.7887370574	initiator
0.7887228240	camera parameters
0.7887201432	surgical procedures
0.7887115788	partir
0.7887101765	composing
0.7887068744	prestige
0.7887067083	aco
0.7887047833	revised
0.7886889951	obstructive
0.7886881030	rail
0.7886720113	participatory
0.7886693904	neural mechanisms
0.7886654678	adversarial
0.7886526392	hands free
0.7886525954	locally adaptive
0.7886464925	distributed consensus
0.7886366444	classification accuracy
0.7886361751	user cooperation
0.7886291131	adjustable
0.7885963155	resizing
0.7885718862	correlation function
0.7885712833	strong convergence
0.7885638135	cancer cells
0.7885512237	eeg signal
0.7885503981	texture mapping
0.7885215171	autonomous agent
0.7885130176	optimal schedule
0.7884921163	single bit
0.7884903339	enemy
0.7884874934	total energy consumption
0.7884803959	human judgments
0.7884764921	conflicting objectives
0.7884722986	non negative matrix factorization nmf
0.7884659154	movie
0.7884649161	experimental design
0.7884563512	newton method
0.7884412541	moving targets
0.7884295104	blood cell
0.7884006150	hydraulic
0.7883965117	patent
0.7883900332	ict
0.7883747302	virtualized
0.7883515470	resource aware
0.7883434228	interactive exploration
0.7883416916	inheritance
0.7883401507	telecommunications
0.7883285005	temporal cortex
0.7883247774	matching algorithm
0.7883240961	complementarity
0.7883003660	rational functions
0.7882974255	lock
0.7882954149	quantum circuit
0.7882903471	free surface
0.7882807125	multiresolution
0.7882732287	optimal policies
0.7882688129	investigator
0.7882614040	edge connectivity
0.7882474371	bulk
0.7882378177	sequent
0.7882264815	wrapper
0.7882260086	editor
0.7882240866	detection probability
0.7882034482	road map
0.7882023267	lexical resources
0.7881982222	deductive
0.7881811840	cpu
0.7881761411	farming
0.7881626905	wsn
0.7881523334	deliberative
0.7881434449	multistage
0.7881256207	nios
0.7881144674	vacuum
0.7880913874	bit errors
0.7880663903	http
0.7880592835	generalised
0.7880350737	scm
0.7880291050	portals
0.7880203318	remote server
0.7880116200	spectroscopy
0.7880085917	pragmatic
0.7879764770	maximum distance
0.7879643164	synaptic weights
0.7879642242	downlink
0.7879625964	human beings
0.7879501681	speech translation
0.7879454425	torsion
0.7879398245	single link
0.7879339284	adjoint
0.7879329432	queuing delay
0.7879242367	commutative
0.7879204339	selection criteria
0.7879146427	unavailability
0.7879123328	selection mechanism
0.7879104520	phase space
0.7879098647	synthesizing
0.7879005987	reliability analysis
0.7878938776	concurrent programming
0.7878714606	internet usage
0.7878472068	foundations
0.7878457931	cat
0.7878321184	lane
0.7878198321	bidirectional
0.7878044903	fleet
0.7877727009	scene classification
0.7877714526	metadata management
0.7877509328	cost functions
0.7877440653	systems engineering
0.7877380060	rooted
0.7877307358	concatenated
0.7877300852	customizable
0.7877169003	path finding
0.7877067240	browser
0.7877047962	forgery
0.7876926691	marriage
0.7876849876	h264
0.7876463668	tactile sensor
0.7876182708	tiling
0.7876032273	anechoic
0.7875932525	database schema
0.7875837571	af cooperative
0.7875797684	manager
0.7875507110	surface deformation
0.7875406600	user mobility
0.7875378232	early stage
0.7875240961	pick
0.7875223326	cooperative localization
0.7875176557	reed
0.7875058791	flow shop scheduling problem
0.7875024679	esteem
0.7875019714	management practices
0.7875003627	relaying schemes
0.7874999594	utility based
0.7874951760	oral
0.7874938971	similarity measurement
0.7874925383	research challenges
0.7874917847	basketball
0.7874807131	medical treatment
0.7874771727	entanglement
0.7874603983	annual
0.7874489795	phase locked
0.7874436650	data centric
0.7874363860	drilling
0.7874201916	digital elevation model
0.7874100124	toolbox
0.7873542298	realizing
0.7873537045	moderate resolution imaging
0.7873464699	malaria
0.7873152298	hyperbolic
0.7873074922	star
0.7873021644	frontier
0.7872878056	omni
0.7872695742	group signatures
0.7872632832	messaging
0.7872418292	television
0.7872354350	clone
0.7872264597	low priority
0.7872177079	automated segmentation
0.7872125989	cartoon
0.7871946923	knowledge sources
0.7871912631	direction finding
0.7871810965	semantic gap
0.7871804664	bayesian approach
0.7871710097	multihop
0.7871682873	fully polynomial time approximation
0.7871641864	bayesian classifiers
0.7871579260	timed
0.7871476903	aortic
0.7871438745	selection pressure
0.7871399483	positioning accuracy
0.7871333534	poisson distribution
0.7871303723	context aware applications
0.7871227192	ambient
0.7871123017	source destination pair
0.7871047352	gaze
0.7870978179	actor
0.7870954317	coalition
0.7870924816	red
0.7870914650	slope
0.7870814974	wound
0.7870774336	incentive
0.7870713324	cryptosystem
0.7870461448	premium
0.7870397362	mit
0.7870273845	internet users
0.7870075941	convergence rates
0.7869934852	fuzzy partitions
0.7869889871	viterbi
0.7869799021	neurological
0.7869751816	wearable
0.7869699128	lemma
0.7869647967	copyright springer
0.7869579927	composite service
0.7869485196	sip based
0.7869393037	higher priority
0.7869235600	economic theory
0.7868947399	search logs
0.7868943907	generalized gaussian
0.7868938474	software artifacts
0.7868915805	karhunen
0.7868915805	gmbh
0.7868897696	eddy
0.7868829771	driving forces
0.7868821353	level sets
0.7868778185	data races
0.7868741734	signaling overhead
0.7868650915	roadmap
0.7868492988	feature set
0.7868298250	amsr
0.7868279665	cutter
0.7868263920	cumulative
0.7868252192	mm
0.7868229707	informatics
0.7868041971	wiley periodicals inc random struct alg
0.7868009071	calculus
0.7867916295	head movements
0.7867674698	fm
0.7867636497	pro
0.7867506623	multi class
0.7867444477	signal constellations
0.7867427647	l2
0.7867408597	currency
0.7867322359	image hashing
0.7867299246	windows
0.7867202381	peak temperature
0.7866985903	restaurant
0.7866950514	iterated
0.7866738738	contrast agent
0.7865821651	linear array
0.7865783614	component based development
0.7865512978	open source project
0.7865469983	interventional
0.7865392370	hmm
0.7865336299	ethical
0.7865336174	gamma
0.7865285539	compositional
0.7865243065	infrared
0.7865162335	multipole
0.7865071434	tradeoff dmt
0.7865062312	quartz
0.7865005493	contention free
0.7864715855	forensic
0.7864704657	tensor fields
0.7864685879	context aware services
0.7864508853	x86
0.7864462412	empirical evaluation
0.7864456837	rule generation
0.7864332568	mobile technologies
0.7864316270	cold
0.7864183623	fractal
0.7864113806	random variable
0.7863931809	multicast trees
0.7863892228	integer programming formulation
0.7863869310	defense
0.7863803325	validating
0.7863777851	software process
0.7863711586	dissertation
0.7863567575	homing
0.7863469356	ontological
0.7863149315	noncooperative
0.7863038784	sibling
0.7862793345	photodiode
0.7862777836	vegetation index
0.7862641770	input impedance
0.7862632906	test set
0.7862343056	originality
0.7862324091	real world
0.7862296419	provenance information
0.7862267489	gender differences
0.7862195812	bivariate
0.7862187145	procurement
0.7862125989	biopsy
0.7862091322	html
0.7861976537	fingerprint images
0.7861724729	subtype
0.7861565707	xml database
0.7861481526	elasticity
0.7861417971	phase difference
0.7861402605	triangulation
0.7861129718	conclusion
0.7860983781	numeral
0.7860770567	xml format
0.7860440855	supply chain network
0.7860362136	super
0.7860265979	stm
0.7860205903	compositing
0.7859665422	knowledge economy
0.7859566831	extremal
0.7859318060	dr
0.7859136649	selfish nodes
0.7858881719	ganglion
0.7858647492	spatial relationships
0.7858540570	gradient vector
0.7858505794	log analysis
0.7858465003	publisher
0.7858397236	operations research
0.7858255517	leaf
0.7858161532	combustion
0.7858052651	distance vector
0.7858005344	electrophysiology
0.7857902425	justice
0.7857885918	protein function
0.7857753955	interpolation filter
0.7857458389	svd
0.7857449848	semi definite
0.7857291644	la
0.7857005394	center
0.7856866349	jammer
0.7856724645	pace
0.7856660968	backup path
0.7856364142	worm detection
0.7856317000	closed loop stability
0.7856256581	sequence alignments
0.7856202627	european
0.7855903319	normal vectors
0.7855753258	journal
0.7855711670	tilt
0.7855555369	grammars
0.7855537772	contingency
0.7855453799	handwritten
0.7855397395	hough
0.7855313472	capillary
0.7855182995	d1
0.7854941479	reordering
0.7854904588	multi domain
0.7854745161	cet
0.7854659301	horse
0.7854497396	matchings
0.7854151972	exclusion
0.7854129795	high utility
0.7853925261	scorecard
0.7853749039	recurrence
0.7853439559	human pose estimation
0.7853423885	test collections
0.7853123960	repeat
0.7852909017	border
0.7852714138	biometric
0.7852584182	hardware architectures
0.7852429028	heuristic algorithms
0.7852383045	networked systems
0.7852332403	perturbation analysis
0.7852282023	materialized
0.7852155932	cardinality constraints
0.7852155829	io
0.7852040269	indifference
0.7851929686	target acquisition
0.7851926377	debug
0.7851766571	dividend
0.7851734601	scratch
0.7851701005	puppet
0.7851533122	pen based
0.7851412461	hausdorff
0.7851121551	haar
0.7851044098	near infrared spectroscopy
0.7850938091	input vectors
0.7850873550	suppression
0.7850768192	detection scheme
0.7850647665	landing
0.7850486567	blind
0.7850433644	bt
0.7850107283	clouds
0.7849954917	net
0.7849827747	independent living
0.7849820809	end user development
0.7849707119	sat
0.7849516385	strip
0.7849324749	precoding matrix
0.7849206559	fired
0.7848939362	threshold selection
0.7848937648	arm
0.7848901440	information retrieval systems
0.7848865118	connective
0.7848858357	internet connectivity
0.7848713560	transmit power control
0.7848644090	pr
0.7848267220	anytime
0.7848194993	computability
0.7848131125	opportunistic
0.7847980953	guideline
0.7847365246	finite dimensional
0.7847333416	region based
0.7846767435	leveraging
0.7846680784	streaming video
0.7846579962	mw
0.7846488681	hyper heuristics
0.7846395290	root cause analysis
0.7846208509	spam
0.7846163794	robot teams
0.7845993502	structuring
0.7845860258	subspace learning
0.7845800917	existential
0.7845778375	pp
0.7845714852	waypoint
0.7845638452	recursive least squares
0.7845437641	intercell
0.7845111857	buyer
0.7845012439	cognition
0.7844936960	naturalness
0.7844817639	sustainable
0.7844183451	processing times
0.7844164976	content analysis
0.7844136774	amplifiers
0.7844095373	programmable gate arrays
0.7844088740	flooding
0.7843993345	vertex degree
0.7843879480	research project
0.7843417069	collision probability
0.7843345957	iv
0.7843325355	radio network
0.7843128660	uk
0.7843111691	chaos theory
0.7843049139	federation
0.7842881183	bilateral
0.7842734335	alternating
0.7842729977	concept hierarchy
0.7842709460	treewidth
0.7842595652	tangible
0.7842493553	parameter setting
0.7842369587	development life cycle
0.7842348723	nn
0.7842242968	proxy
0.7842099012	propagation channel
0.7842041596	null
0.7842032486	timing yield
0.7842025883	discrete time markov chain
0.7842016672	pattern generator
0.7842016149	projective
0.7841977989	fighting
0.7841864306	ultrasound
0.7841863711	archive
0.7841722678	letters
0.7841518527	grain
0.7841468394	industrial robot
0.7841110025	business model
0.7841016492	reconstructing
0.7840855549	aerial vehicles uavs
0.7840704453	discriminative
0.7840634728	robot motion
0.7840584799	meteorology
0.7840399466	fair
0.7840345017	boltzmann
0.7840334083	reject
0.7840042713	linux
0.7839782733	spectral domain
0.7839765874	america
0.7839599845	multiprocessors
0.7839504159	gas
0.7839484786	folding
0.7839379383	vertebrae
0.7839301486	collide
0.7839199389	chinese
0.7839195389	disambiguation
0.7838948011	node disjoint paths
0.7838655950	collateral
0.7838584552	catch
0.7838483322	polynomial equations
0.7838443660	welding
0.7838432137	smoking
0.7838399114	dedicated hardware
0.7838366364	spatial domain
0.7838241629	monotonic
0.7838124533	handler
0.7838034202	analyzer
0.7837935617	tube
0.7837893618	grammar
0.7837691579	configurable
0.7837665136	error tolerance
0.7837622732	modeling tool
0.7837605923	congestion window
0.7836649244	approximation ratios
0.7836640090	biological systems
0.7836472318	tolerant networking
0.7836422495	intimate
0.7836234540	dc
0.7835991953	local appearance
0.7835976368	relatedness
0.7835945283	mobile ad hoc
0.7835638586	multiagent
0.7835636829	impulsive control
0.7835429747	harvest
0.7835362948	urban
0.7835291417	delta
0.7835110487	wireless multicast
0.7835100714	epidemic
0.7834952993	legacy applications
0.7834634819	gpu
0.7834468243	codec
0.7834345528	abstracts
0.7834262970	ball
0.7834250798	quest
0.7834204526	note
0.7834097975	traceback
0.7834089689	online discussion
0.7833780046	autonomic management
0.7833511849	virtualization
0.7833466070	neumann
0.7833322985	java
0.7833247899	morphological
0.7833201550	protease
0.7833091638	routing tables
0.7833077790	grammatical
0.7833040355	chapter
0.7832997547	adaption
0.7832857883	ce
0.7832488002	service innovation
0.7832213294	constructive
0.7832066222	diminishing
0.7832055756	polyhedral
0.7832021211	channel gain
0.7831769654	escalation
0.7831730734	trade offs
0.7831243571	oblivious
0.7831227817	layered
0.7830992367	observational
0.7830591604	online courses
0.7830278631	backoff
0.7830197325	partial words
0.7830119025	minimum total
0.7830045190	randomized
0.7829656944	fusion rule
0.7829495412	button
0.7829465920	functional imaging
0.7829437533	avian
0.7829373018	privilege
0.7829303380	small world network
0.7829250266	queueing model
0.7829175487	copes
0.7829151951	stochastic demand
0.7829129875	human motions
0.7829074880	intra cluster
0.7828604195	multi period
0.7828602000	chaos
0.7828344211	rao
0.7828224235	plasma
0.7828147426	strongly polynomial
0.7828123978	soccer video
0.7827700338	negativity
0.7827639066	temperature dependent
0.7827595289	renaming
0.7827546723	project manager
0.7827366868	dielectric
0.7827271936	agile
0.7827190654	tardiness
0.7827183489	power generation
0.7827105159	atlas
0.7827089549	skull
0.7826794675	converters
0.7826715223	mead
0.7826643168	pump
0.7826594703	unconstrained optimization
0.7826585666	parameter selection
0.7826437921	active site
0.7826426711	security flaws
0.7826394737	climate
0.7826156995	paging
0.7826074339	hypergraphs
0.7826056871	analogy
0.7825991541	cinema
0.7825838206	antigen
0.7825759786	earth
0.7825553714	pairing
0.7825547694	observer based
0.7825522592	linking
0.7825519652	endangered
0.7825464921	reactor
0.7825298595	decision problems
0.7825276539	comparative study
0.7825257081	combin
0.7825234335	notation
0.7824982364	malicious behavior
0.7824969146	metric learning
0.7824868200	average spectral efficiency
0.7824814169	se
0.7824774800	pso
0.7824720456	selfish
0.7824535768	personalized search
0.7824208157	uwb communications
0.7824191212	geo spatial
0.7823953376	harvesting
0.7823848660	utilising
0.7823646513	machine learning techniques
0.7823573868	protein family
0.7823470973	tacit
0.7823460977	authority
0.7823427022	translational research
0.7823076164	scott
0.7823075455	speed control
0.7823069176	galerkin
0.7822984823	power assist
0.7822980849	hemodynamic
0.7822958738	functional link
0.7822901512	beamforming
0.7822615529	heritage
0.7822520850	skeleton
0.7822261766	resolving
0.7822254880	linear time invariant lti
0.7821880766	robin
0.7821816514	national
0.7821801186	exp function method
0.7821571471	forward selection
0.7821423284	para
0.7821366196	image databases
0.7821110835	shadow
0.7821022509	comput chem
0.7820669764	rank order
0.7820652298	rural
0.7820632473	ns
0.7820616088	anisotropic
0.7820469885	biomedical research
0.7820173038	mobile communication systems
0.7820076781	fourier
0.7820010002	cost reduction
0.7819889191	flow rate
0.7819843025	substance
0.7819810690	relativistic
0.7819696977	analytics
0.7819652298	authorization
0.7819571589	box
0.7819515003	hippocampus
0.7819244435	complementarity problems
0.7819107989	globe
0.7819076513	partial product
0.7818862293	monopoly
0.7818808898	connection weights
0.7818744522	feedforward control
0.7818244260	loan
0.7818219442	impulse response fir
0.7817942060	undecidability
0.7817673813	inverse problem
0.7817252436	social context
0.7816870611	deblocking
0.7816782842	authoring
0.7816722439	districts
0.7816722401	inductive
0.7816705247	domination
0.7816597008	moving platform
0.7816559447	network interface
0.7816070254	fpga
0.7816043222	imbalanced data
0.7815956215	personality
0.7815946008	idf
0.7815703808	multispectral
0.7815557995	reconfigurable
0.7815503909	online forums
0.7815468278	dijkstras algorithm
0.7815308873	skyline
0.7814937565	semantic analysis
0.7814923480	circle
0.7814905834	memetic
0.7814803284	kinases
0.7814756263	connection oriented
0.7814463311	adaptive learning
0.7814320632	design guidelines
0.7814274165	bloom
0.7814259292	attractiveness
0.7814212840	interpersonal
0.7814178274	confluence
0.7814142122	classification tasks
0.7814110449	lateralized
0.7813880127	tunable
0.7813822951	perceptron
0.7813773390	document frequency
0.7813727431	shallow
0.7813696977	facial shape
0.7813677032	integrable
0.7813630588	graph coloring problem
0.7813574665	anonymous
0.7813541849	handwriting
0.7813445834	radar
0.7813394709	satisfiability
0.7813278294	attribute based
0.7812817499	distilled
0.7812640991	zipfs
0.7812488334	security architecture
0.7812239969	interestingness
0.7812182511	spinal
0.7811859916	personalized
0.7811759469	university
0.7811506043	master
0.7811364679	quality management
0.7811049447	radarsat
0.7810935250	coq
0.7810656431	model based
0.7810633671	riding
0.7810515654	broadcasting
0.7810453903	parkinsons
0.7810448954	feedback controllers
0.7810329854	diversity gains
0.7810272757	simulating
0.7810198093	row
0.7810181395	warcraft
0.7810138882	internet technologies
0.7809749102	multiscale
0.7809665477	indication
0.7809628888	polytope
0.7809490029	random network coding
0.7809372062	sizing
0.7809135225	verifying
0.7808999035	dof
0.7808609992	continuum
0.7808521053	reliable communication
0.7808417296	situated
0.7808252347	feedback controller
0.7808218480	student learning
0.7807949506	pharmaceutical
0.7807948351	cluster formation
0.7807875149	battery power
0.7807822951	tutorial
0.7807599522	practice guidelines
0.7807584314	asymmetric
0.7807492775	granules
0.7807283948	newtons
0.7807261822	surface patches
0.7807249948	foreground object
0.7807046143	knee
0.7806814786	fifth
0.7806814290	membrane potential
0.7806787282	unauthorized access
0.7806694215	image encryption
0.7806511168	centric
0.7806243066	cryptography
0.7806085697	visualizing
0.7805945800	instructional
0.7805894144	fuels
0.7805667885	stemming
0.7805618017	fault tolerant routing
0.7805610465	variable size
0.7805521767	feature selection methods
0.7805398318	ensemble
0.7805354024	localization error
0.7805072400	human genome
0.7805071405	tremor
0.7804977520	opponent
0.7804942616	ammonia
0.7804896544	irrational
0.7804869676	polarimetric
0.7804679815	school
0.7804363139	telecommunication
0.7804222576	maker
0.7804096465	creep
0.7804076862	spatial relations
0.7803971966	autonomic
0.7803841623	tabu
0.7803781008	mobile sensors
0.7803565935	wing
0.7803249713	gateway
0.7803028525	smells
0.7803021250	pumps
0.7802942833	gastrointestinal
0.7802899458	ensembles
0.7802846269	game world
0.7802683648	low distortion
0.7802608167	mpeg
0.7802492370	owl
0.7802321948	textual documents
0.7802272513	gesture based
0.7802100493	project teams
0.7801860541	city
0.7801635149	plan recognition
0.7801435596	society
0.7801232753	6t
0.7801129942	networked
0.7800839481	mobile users
0.7800615314	sending rate
0.7800603005	rfid authentication
0.7800600419	multi faceted
0.7800560142	collective communication
0.7800435444	hub
0.7800380263	graph embedding
0.7800292886	truthful mechanisms
0.7800125179	hardness results
0.7799994326	asthma
0.7799950446	delay variation
0.7799803672	merge
0.7799761030	burst
0.7799754381	lossless
0.7799706436	fully automated
0.7799576174	effective capacity
0.7799546303	sparse grid
0.7799507815	state feedback controller
0.7799399053	forecasting
0.7799284799	petri net based
0.7799263723	coding efficiency
0.7799197284	persistence
0.7798954505	methylation
0.7798827187	euclidean
0.7798734247	cognitive impairment
0.7798684823	equality
0.7798571516	versatile
0.7798547855	mpi implementations
0.7798350619	exterior
0.7798294158	analog front end
0.7798274214	combat
0.7798035794	enclosure
0.7797819833	histograms
0.7797789706	fur
0.7797762031	fundamental matrix
0.7797696719	human hand
0.7797574032	adaptive controller
0.7797530556	teleoperation
0.7797513114	indoor
0.7797373947	mems based
0.7797362844	crosstalk
0.7797058804	distance function
0.7797032023	realisation
0.7796776637	dublin
0.7796729528	propositional
0.7796568097	nondeterministic
0.7796266711	leakage reduction
0.7796144284	section
0.7796067027	unlike
0.7795946992	vascular
0.7795942374	proof theory
0.7795840623	residuated
0.7795732659	elimination
0.7795660900	conversational
0.7795482222	collaborative business processes
0.7795446469	open world
0.7795122525	liquid
0.7795113677	regularized least squares
0.7795107872	transition probability
0.7794996189	simplex
0.7794965274	shutter
0.7794868264	baum
0.7794849636	hand movements
0.7794660916	development environment
0.7794627911	gated
0.7794604712	cell edge
0.7794556215	developmental
0.7794519242	roller
0.7794512405	sensor data
0.7794464343	dvb
0.7794203428	implantation
0.7794075970	coexistence
0.7793978582	svd based
0.7793894810	hash based
0.7793871719	grid technologies
0.7793858029	english
0.7793637600	teaching materials
0.7793524344	total power
0.7793451587	object classification
0.7793382291	haptic
0.7793309878	coding scheme
0.7793274148	resource allocation scheme
0.7793220516	urban environment
0.7793149674	memory requirement
0.7793092592	sphere
0.7793050299	software developers
0.7792973397	bi
0.7792884048	bipedal
0.7792776476	mail
0.7792710207	causal relations
0.7792165841	treating
0.7791869792	priority classes
0.7791701723	mitigating
0.7791669456	flapping
0.7791397808	packet latency
0.7791388470	sparse matrices
0.7791341169	online community
0.7791338246	hopping
0.7791334288	gray
0.7791244063	bang
0.7791218036	functors
0.7791213841	poset
0.7791210217	computing platforms
0.7791203245	neuroimaging
0.7790995106	qualification
0.7790867877	cdma cellular
0.7790841929	ecosystem
0.7790786025	pen
0.7790774336	charts
0.7790770042	intermittent
0.7790734777	queuing
0.7790517203	multiplexing gains
0.7790282804	underwater
0.7790249843	centre
0.7790096473	declarative
0.7789860684	nintendo
0.7789461742	convergence rate
0.7789456194	healthy volunteers
0.7789247697	expanding
0.7788963362	fix
0.7788891183	theta
0.7788687032	singular points
0.7788605819	production processes
0.7788546800	competence
0.7788515323	nitride
0.7788393858	uplink
0.7788384011	address space
0.7787969574	closed form expressions
0.7787833679	backward compatible
0.7787821791	z10
0.7787819995	fatty
0.7787802318	quantifier
0.7787357676	multilayer
0.7787172086	traffic conditions
0.7786951011	turnaround
0.7786874749	irradiance
0.7786793955	p2p traffic
0.7786781188	web enabled
0.7786759920	somatosensory
0.7786739279	return on investment
0.7786723564	malicious nodes
0.7786555722	data analysis
0.7786450291	undergraduate
0.7786000386	synchronous motor
0.7785960654	bacterial
0.7785873457	safety related
0.7785801892	hospital
0.7785795976	water distribution
0.7785765951	phosphate
0.7785453840	parallel computations
0.7785362948	satellite
0.7785055756	omnidirectional
0.7784987773	universal access
0.7784786241	adaptive routing
0.7784752474	lakes
0.7784555150	unsupervised segmentation
0.7784546420	additive gaussian noise
0.7784449808	interleaved
0.7784332971	hypergraph
0.7784102861	pca based
0.7783992410	stamped
0.7783926527	limited capacity
0.7783684160	slow fading
0.7783471886	typology
0.7783464814	video search
0.7783144258	ranking functions
0.7783054958	mile
0.7783003259	flip
0.7782994851	electronic circuit
0.7782962154	variable coefficients
0.7782837981	dispute
0.7782620893	multilevel
0.7782563201	thoracic
0.7782523102	licensed users
0.7782508053	high speed packet
0.7782468431	forwarder
0.7782339927	natural interaction
0.7782336640	checker
0.7782090989	decentralized
0.7781843814	saliency
0.7781720591	text clustering
0.7781719995	temperature control
0.7781615316	disasters
0.7781600094	theoretical framework
0.7781590577	counter
0.7781410688	young
0.7781390734	possibility theory
0.7781357304	john wiley
0.7781344578	chaotic systems
0.7781081817	protein protein
0.7780833907	accelerated
0.7780789890	macro
0.7780783077	stagnation
0.7780652713	graduate
0.7780399733	chromatography
0.7780399692	qos
0.7780398996	replica
0.7780339203	bacteria
0.7780327936	source destination
0.7780318325	information literacy
0.7779997934	amendment
0.7779926358	assurance
0.7779871800	high resolution images
0.7779839014	everyone
0.7779791034	pollutant
0.7779762341	noc architecture
0.7779671620	bootstrap
0.7779468824	precoding
0.7779167013	imaging modalities
0.7779103469	cabin
0.7778961994	cylindrical
0.7778898226	virtual objects
0.7778860827	parsing
0.7778648831	sl
0.7778643057	cerebellum
0.7778503115	query languages
0.7778304781	analytic
0.7778258270	investment strategy
0.7778165565	unit interval
0.7778094300	negotiation protocol
0.7778084193	lithium
0.7777930980	multivariate
0.7777898971	exhibition
0.7777825700	reviewing
0.7777735909	dominating set problem
0.7777446887	wide area network
0.7777394452	dialogue
0.7777360251	wireless devices
0.7777296121	governance
0.7777274764	plastic
0.7777205260	multidisciplinary
0.7777123193	justification
0.7777113159	hopfield
0.7777083049	wet
0.7777054859	voltage mode
0.7776791400	cubes
0.7776733278	iterative detection
0.7776476155	trick
0.7776390698	mst
0.7776305292	promotion
0.7775942101	flipping
0.7775771216	fi
0.7775455942	long latency
0.7775135241	metabolic network
0.7775099135	analysing
0.7774686743	training examples
0.7774562191	security aspects
0.7774411933	ganglia
0.7774229741	salt and pepper noise
0.7774048990	monte carlo simulations
0.7773996880	retrieval task
0.7773981670	international standards
0.7773549254	ith
0.7773458368	bioinformatics
0.7773264129	cell line
0.7773119588	deconvolution
0.7772992996	texture descriptor
0.7772600370	drug targets
0.7772572803	prediction errors
0.7772490167	pervasive
0.7772381110	achievement
0.7772087284	population based
0.7771986662	articulo
0.7771947653	vanishing
0.7771944747	variable speed
0.7771581648	error handling
0.7771571465	handheld
0.7771324520	tricks
0.7771200264	objective evaluation
0.7770848551	extrinsic information
0.7770625056	pid
0.7770409302	text extraction
0.7770272472	web contents
0.7770226962	bayesian
0.7770226430	translational
0.7770211088	tangent
0.7770141746	biological sequence
0.7770111498	outsourcing
0.7770104506	lightweight
0.7769947502	visual stimuli
0.7769917204	performance tuning
0.7769851502	formative
0.7769780530	feature extraction method
0.7769721847	moores
0.7769666643	radiated
0.7769661927	training corpus
0.7769653674	sociology
0.7769619428	insertion loss
0.7769481668	transpose
0.7769465420	vaccine
0.7769420084	em
0.7769308938	fast handover
0.7769266787	owned
0.7769254168	meta model
0.7768941520	conflicting goals
0.7768811840	small size
0.7768679279	keyphrase
0.7768533848	knapsack
0.7768471847	kong
0.7768326774	revision
0.7768288642	gabor
0.7768061515	dispersal
0.7767951716	narrative
0.7767862191	fully distributed
0.7767813366	social relationships
0.7767751106	spatial filters
0.7767734427	functional differential equations
0.7767721539	perfect channel state information csi
0.7767581243	acyclic
0.7767269743	dorsolateral prefrontal
0.7767192085	conic
0.7767176739	unified
0.7766907102	plausibility
0.7766799505	confinement
0.7766780227	random numbers
0.7766721383	quality measures
0.7766606345	recommendation systems
0.7766568437	log log
0.7766548948	rank width
0.7766428050	domain specific language
0.7766322912	stbc
0.7766233651	max
0.7766202972	indirect
0.7765943831	hilbert
0.7765851043	combinatorial
0.7765841041	vibration signals
0.7765804321	motion trajectory
0.7765757681	boosting
0.7765722549	database systems
0.7765387746	high volume
0.7765298782	inductive learning
0.7765280567	flops
0.7765259017	appliance
0.7765123822	perceptually
0.7764937849	proto
0.7764921427	high resolution satellite
0.7764905450	multiple input single output
0.7764505460	deep
0.7764294986	dissociation
0.7764131071	connected graphs
0.7763930788	boundary value problems
0.7763750586	strangers
0.7763739585	click
0.7763593316	poverty
0.7763460571	divisor
0.7763367220	rewrite systems
0.7763349391	historically
0.7763329964	pixel domain
0.7763269635	path computation
0.7763209026	generative
0.7763039109	embodied
0.7762821380	conformance
0.7762483072	closely spaced
0.7762303818	beating
0.7762169959	parametric
0.7762055756	neuroscience
0.7762036781	rf
0.7761282016	conference
0.7761263530	channel coefficients
0.7761157785	crack
0.7761099580	privacy threats
0.7761074808	agent architecture
0.7761031920	ip
0.7761009860	electrical impedance
0.7760913503	roc
0.7760639172	relaxed
0.7760416581	multi agent based
0.7760348956	sake
0.7760323645	deliberation
0.7760256321	certificate
0.7760245384	software vendors
0.7760082336	pros
0.7760075454	sodium
0.7760058533	fuzzy number
0.7759937871	debris
0.7759873860	conditional
0.7759776524	p2p streaming systems
0.7759735693	evolutionary search
0.7759727854	ph
0.7759665952	semistructured
0.7759567346	cardiac motion
0.7759556475	mold
0.7759229748	emergency
0.7759181995	graphical model
0.7759076051	affective
0.7758943985	striatum
0.7758686214	salient points
0.7758667891	inspect
0.7758509259	electromagnetic
0.7758448416	reserve
0.7758387651	ignition
0.7758315393	image formation
0.7758219793	progressive
0.7758054239	underground
0.7757987863	semantic information
0.7757958845	ontology evolution
0.7757764771	dipole
0.7757737577	creativity
0.7757678917	national security
0.7757592732	trust relationships
0.7757527019	sar
0.7757456789	aa
0.7757004020	distance estimation
0.7756866088	pedestrian
0.7756799468	taste
0.7756719816	video camera
0.7756635108	unmixing
0.7756412178	summary
0.7756375014	silicon on insulator
0.7756245583	virtual coordinate
0.7755850859	extensible
0.7755571155	clips
0.7755518592	throughput fairness
0.7755509560	car
0.7755312465	cement
0.7755008287	free boundary
0.7754920812	translation quality
0.7754859965	unconventional
0.7754823621	ventricular
0.7754637639	intruder
0.7754597603	email messages
0.7754533707	human cognition
0.7754456969	noise variance
0.7754431913	educational software
0.7754426475	claw
0.7754251488	predistribution
0.7753838654	approximating
0.7753786853	hypertension
0.7753694884	information integration
0.7753455378	number theory
0.7753175413	cloning
0.7753070707	saccharomyces
0.7752986435	software radio
0.7752986054	electronics
0.7752937094	sugeno
0.7752826006	maintenance cost
0.7752795156	executable
0.7752776435	middleware
0.7752653372	median
0.7752643829	proactive routing
0.7752435110	selective
0.7752303799	multiobjective
0.7752248421	struct
0.7751978489	envelope
0.7751877517	preparation
0.7751858245	speaker dependent
0.7751669578	crm
0.7751616016	context aware mobile
0.7751288401	caching
0.7751284396	channel correlation
0.7750999293	smart space
0.7750914183	discern
0.7750898686	ruled
0.7750805734	associative
0.7750680168	bibliometric
0.7750472520	unsupervised
0.7750266833	svm training
0.7750182105	inflation
0.7749635303	overlapping clusters
0.7749582621	unlabeled documents
0.7749419899	class label
0.7749330420	jump
0.7749320811	granule
0.7749134142	intermittently
0.7749090859	wideband
0.7749044315	circular
0.7748968699	legislative
0.7748643977	consent
0.7748365555	mises
0.7748356872	immersive virtual
0.7748130356	retrieving
0.7748124273	knot
0.7748060308	organisation
0.7747710113	cord
0.7747490923	grobner
0.7747417114	mediating
0.7747346409	icon
0.7747318469	virus
0.7747287927	branching
0.7747118423	learning automata
0.7747115467	personal area network
0.7747078581	motion patterns
0.7746987781	races
0.7746961393	coordinated
0.7746853889	nonparametric
0.7746743967	partial volume
0.7746714124	demonstrator
0.7746527213	domain independent
0.7746354454	mid
0.7746292114	cryptanalysis
0.7746190734	user evaluation
0.7745807924	examining
0.7745683936	key pre distribution
0.7745540401	component analysis
0.7745459311	objective function
0.7745387823	yellow
0.7745370887	decryption
0.7745329453	battery operated
0.7745307695	biologically meaningful
0.7745305286	rain
0.7745269760	model based diagnosis
0.7745041391	multimodal
0.7745027433	complete graphs
0.7744963924	e government
0.7744956387	bandwidth consumption
0.7744954419	trusted
0.7744937237	coverage area
0.7744928121	partial derivatives
0.7744909600	maximum length
0.7744808382	compensation technique
0.7744771744	lab
0.7744553993	kingdom
0.7744527756	wireless link
0.7744467507	regularization term
0.7744366781	polygonal
0.7744298792	pe
0.7744220762	significant bits
0.7744215432	water level
0.7743924992	entropy based
0.7743790380	reversible
0.7743764388	meta heuristics
0.7743714623	copper
0.7743534862	voltage drop
0.7743190893	associating
0.7743186895	win
0.7743149534	social engineering
0.7743130226	formal concepts
0.7742960353	ofdma
0.7742663343	guided
0.7742632076	digital imaging
0.7742583702	vertex cover problem
0.7742521915	intelligent control
0.7742510249	challenges facing
0.7742506401	mpeg video
0.7742403383	pedagogical
0.7742316959	acoustic models
0.7742303111	positive examples
0.7741836296	cnn
0.7741771594	node density
0.7741509731	tomography
0.7741361976	territory
0.7741320487	foraging behavior
0.7741257621	mindstorms
0.7741251360	codecs
0.7741170889	spatial queries
0.7741162877	subscriber
0.7741090149	scheduling schemes
0.7741078116	seminar
0.7740945759	quantum
0.7740637410	workshop
0.7740635790	machine learning algorithms
0.7740583600	adaptive thresholding
0.7740550051	discovering
0.7740547673	dimensionless
0.7740541400	singularity
0.7740351603	enterprise
0.7740296458	geological
0.7740186310	balanced
0.7740002060	wake
0.7739994476	tunnel
0.7739991844	bayes
0.7739959884	crossover
0.7739866685	match scores
0.7739841606	decoupled
0.7739756633	warming
0.7739634427	backed
0.7739407927	credibility
0.7739368019	probability theory
0.7739317493	multicast
0.7739074661	public spaces
0.7739054239	intractability
0.7739045911	experimental study
0.7738797203	conquer
0.7738746703	parameterized complexity
0.7738703473	harmonic
0.7738612002	bibliographic
0.7738440620	detect abnormal
0.7737924287	scholes
0.7737722951	referential
0.7737666106	ga
0.7737585244	script
0.7737572537	sram based
0.7737485365	parasitic
0.7737412593	tracts
0.7737408314	healing
0.7737360279	symbolic
0.7737040245	stego images
0.7736808660	mathematics
0.7736723803	touch
0.7736538765	clock cycle
0.7736384371	linear subspace
0.7736324599	mind
0.7736173145	semantic web service
0.7736167352	ion
0.7736152474	stripe
0.7736119278	surgery
0.7736111954	multicriteria
0.7736002653	orthonormal
0.7735716131	sensing range
0.7735458309	tackling
0.7735301093	artificial agents
0.7735269465	banach
0.7735261746	nonnegative
0.7735157646	deriving
0.7735035399	vries
0.7734822447	directed path
0.7734706579	liability
0.7734535000	motivation
0.7734509846	network virtualization
0.7734486662	intraparietal
0.7734461914	spacetime
0.7734171636	aided
0.7734170556	uniform convergence
0.7734043899	ibm cell
0.7734010224	class specific
0.7734008258	stego
0.7733946993	introducing
0.7733931909	transactional
0.7733907809	android
0.7733711072	retinal
0.7733653039	network mobility
0.7733546754	emergent
0.7733445663	diode
0.7733267229	network intrusion detection systems
0.7733115995	transient errors
0.7733071002	io operations
0.7733045711	novo
0.7732943279	south
0.7732722525	ordination
0.7732690991	pareto set
0.7732626425	multiple objective
0.7732508830	ber
0.7732498530	oil
0.7732340435	modeling framework
0.7732324682	laparoscopic
0.7732300613	bio
0.7732286028	projection method
0.7732251996	tool chain
0.7732173927	foreground objects
0.7731970408	continuing
0.7731776989	explorative
0.7731776528	constancy
0.7731716750	multi hop networks
0.7731686841	bit error rates
0.7731623085	functional magnetic resonance imaging fmri
0.7731610894	longest
0.7731476278	parent
0.7731472401	accounting
0.7731444000	plug
0.7731166824	visualization techniques
0.7731053457	reachability
0.7731018929	interoperability
0.7730939092	phylogenetic
0.7730514771	insurance
0.7730429462	service orientation
0.7730417500	spherical
0.7730380879	restoration
0.7730367527	loss rate
0.7730297415	prediction accuracy
0.7730192905	node localization
0.7730077922	curved
0.7729955619	electrical
0.7729884747	nanometer
0.7729844127	protein structural
0.7729740032	lifecycle
0.7729592418	prefix
0.7729500578	high snr
0.7729484827	graph laplacian
0.7729421459	panoramic images
0.7729394149	divergence
0.7729345117	slepian
0.7729267872	phrase
0.7729240913	leader
0.7729190931	mechanical properties
0.7728986352	subspace based
0.7728959389	penalty function
0.7728911126	brain activities
0.7728885956	ms
0.7728790163	impression
0.7728673715	cluster file
0.7728663484	repeating patterns
0.7728589319	dependent plasticity
0.7728537937	siam
0.7728487031	disjunctive
0.7728255865	modular
0.7727801085	single frequency
0.7727650475	bicycle
0.7727619144	computationally efficient
0.7727515861	auto
0.7727266621	scripting
0.7727037752	reverse
0.7726664021	summarization
0.7726544406	validity index
0.7726488608	behaved
0.7726097181	intelligent environments
0.7725989969	circulant
0.7725943840	segmenting
0.7725645055	inclined
0.7725463391	object categories
0.7725200334	computing systems
0.7724925892	roc curves
0.7724793706	histogram
0.7724784336	failure rate
0.7724776897	code size
0.7724753191	automotive applications
0.7724741912	operation modes
0.7724650472	multicore
0.7724544805	functional neuroimaging
0.7724523586	test sequences
0.7724285127	cmos
0.7724136734	medicine
0.7724100455	pepper
0.7724026345	smart
0.7723459907	evasion
0.7723353804	ofdm
0.7723315670	educational technology
0.7723188304	dopamine
0.7723089225	decision analysis
0.7723072367	reputation
0.7722942325	traitor
0.7721961062	lyapunov krasovskii functional
0.7721950554	reputation based
0.7721896709	linear relaxation
0.7721892582	region segmentation
0.7721799966	consecutive frames
0.7721795556	watermarking schemes
0.7721715103	anxiety
0.7721711515	scale free network
0.7721702065	francisco
0.7721668692	enterprise applications
0.7721605833	field strength
0.7721556719	transportation costs
0.7721483813	trait
0.7721412662	video encoding
0.7721387593	grid applications
0.7721384307	headings
0.7721296384	proceedings
0.7721147071	investigating
0.7721136619	factor graphs
0.7721120507	similarity searches
0.7720787505	systematic literature review
0.7720733174	visualization technique
0.7720673329	autoregressive
0.7720549895	micro electro mechanical
0.7720443295	land
0.7720406874	inform
0.7720362569	laser
0.7720350541	human vision
0.7720263039	bears
0.7720136304	service platform
0.7720015193	mimo downlink
0.7719854653	hellman
0.7719852903	logistics
0.7719850685	comparability
0.7719807195	physics based
0.7719604160	networking
0.7719557723	finite difference time domain
0.7719480874	gene expression datasets
0.7719453444	rfid
0.7719363998	recent developments
0.7719347287	client server architecture
0.7719258172	hazard
0.7718616915	shelf
0.7718223501	summation
0.7718216904	detection rate
0.7718077814	error rates
0.7718076849	surface temperature
0.7717841881	eigenvalue decomposition
0.7717429319	coronary
0.7717365579	runge
0.7717345966	memory efficient
0.7717315010	test statistics
0.7717275632	multidimensional
0.7717209884	weather
0.7717107321	018m cmos
0.7717000587	radical
0.7716769183	traditionally
0.7716429106	sort
0.7716074823	panel
0.7715718123	squared error
0.7715704965	link prediction
0.7715431011	legacy systems
0.7715235595	field of view fov
0.7715155473	automotive
0.7715144549	live
0.7714752139	rough set based
0.7714545561	warping
0.7714467015	tensor
0.7714377906	compound
0.7714100455	cytometry
0.7714057443	body motion
0.7713738586	research directions
0.7713594169	parabolic
0.7713593148	psychology
0.7713589960	policy based
0.7713488322	painting
0.7713291848	patch based
0.7712697996	cortical areas
0.7712622280	pi control
0.7712599060	politics
0.7712553877	condensed
0.7712497881	dorsolateral
0.7712456368	apnea
0.7712391105	sam
0.7711984276	subspace
0.7711784394	channel fading
0.7711555893	composite
0.7711513328	evolutionary multi objective
0.7711381211	converting
0.7711142494	rotor
0.7711048736	inverse
0.7711009953	yard
0.7710952856	space time coded
0.7710696098	implantable
0.7710689150	greenhouse
0.7710423778	parcel
0.7710404394	duality
0.7710056421	dysfunction
0.7709971088	controllability
0.7709877391	laboratory
0.7709823381	spatial clustering
0.7709548219	online game
0.7709521962	nd
0.7709425642	matrix exponential
0.7709409112	scheduling mechanism
0.7709378142	unitary
0.7709369532	assessing
0.7709283437	interoperable
0.7709268109	content aware
0.7709209416	residential
0.7709078923	taylor series expansion
0.7709044829	license
0.7708824714	experiential
0.7708747626	earliest
0.7708592708	deposit
0.7708454201	fold cross validation
0.7708442245	training dataset
0.7708407901	singular integral
0.7708342446	clock tree
0.7708269548	resistant
0.7707850001	trustworthiness
0.7707787695	elastic
0.7707782424	transit
0.7707493934	bounding
0.7707460027	bridge
0.7707455858	cellular manufacturing
0.7707140738	wall
0.7707097880	dummy
0.7707026287	reproductive
0.7707005219	publishing
0.7706907413	graphic
0.7706876028	stereo
0.7706861186	passivity based
0.7706849793	kidney
0.7706684211	speech production
0.7706646199	chaotic
0.7706560841	step length
0.7706543677	departure
0.7706535945	fabrication
0.7706514744	bidding
0.7706308468	interrupt
0.7706179813	oxygenation
0.7706086219	monoid
0.7706058839	ml estimator
0.7705949600	technical note
0.7705643490	lattice based
0.7705631975	approximability
0.7705547425	dempster
0.7705535430	computer aided design cad
0.7705531993	wiley interscience
0.7705500902	motif
0.7705172936	repeating
0.7705144833	stereoscopic
0.7704852402	bank
0.7704634264	content provider
0.7704538351	signal reconstruction
0.7704507746	news video
0.7704369217	newton
0.7703921906	stop
0.7703795768	stem
0.7703702842	cleaning
0.7703556627	arithmetic
0.7703443811	posts
0.7703156644	reactors
0.7703096384	robotics
0.7703055756	plain
0.7702714769	robotic
0.7702380017	articles published
0.7702173583	spanning tree problem
0.7702142455	rayleigh
0.7701987465	distillation
0.7701825854	odds
0.7701805112	enrichment
0.7701628162	pursuit
0.7701509274	bit width
0.7701375961	disk drive
0.7701193227	toxin
0.7701180929	mean square error mse
0.7701018340	directional
0.7700844015	projector
0.7700839183	accessibility
0.7700800270	compressed
0.7700795771	alamouti code
0.7700738062	grids
0.7700637763	distributed beamforming
0.7700484457	symbol rate
0.7700422114	biological significance
0.7700157758	directed
0.7700144533	single output miso
0.7700072805	basics
0.7699961152	usage patterns
0.7699961128	developing world
0.7699926629	porous
0.7699906158	oxidation
0.7699896141	shape representation
0.7699847834	conjoint
0.7699707484	nash
0.7699639382	mobile wireless
0.7699196606	hidden neurons
0.7699093290	motor skills
0.7698919624	quadrature
0.7698824128	xml
0.7698710414	biomedical
0.7698669871	dispatch
0.7698375171	fuzzy relations
0.7698267953	thirds
0.7698209719	voice over internet protocol
0.7698189837	potential threats
0.7698119278	classroom
0.7698097104	multicast group
0.7697983090	enforcement
0.7697908175	underestimation
0.7697678583	game theoretic framework
0.7697614825	floor
0.7697481000	semantic representation
0.7697074119	context information
0.7697030497	passivity
0.7697027095	amygdala
0.7696971835	pilot
0.7696947999	instruction level
0.7696770983	program execution
0.7696769264	enabler
0.7696506611	friendliness
0.7696428622	community driven
0.7696328267	permanent
0.7696301774	optimum
0.7696216730	nsga
0.7696175715	adhering
0.7695922404	applied mathematics
0.7695909124	smooth surfaces
0.7695652465	tpc
0.7695630811	chemical
0.7695418773	government
0.7695349233	traffic control
0.7695326606	audio signal
0.7695306655	shafer
0.7695263844	bullwhip
0.7695239134	corporate
0.7694926782	sum rate capacity
0.7694925107	constraint violations
0.7694879384	nuclear
0.7694733585	images captured
0.7694690397	set partitioning
0.7694639011	enhancement
0.7694372712	pwm
0.7694371137	wyner
0.7694306597	implant
0.7694256041	desktop
0.7694236781	wait
0.7694158114	tree decomposition
0.7694085412	optimisation
0.7694084923	multivariate statistical
0.7694004984	die
0.7693738095	geometric features
0.7693524309	dominance based rough
0.7693506881	oscillation
0.7693473656	stochastic game
0.7693217752	springs
0.7692992525	neural circuits
0.7692837411	manuscript
0.7692704841	social networking services
0.7692703228	numerical analysis
0.7692611425	terrasar
0.7692611425	marquardt
0.7692580486	color histograms
0.7692451462	spatial ability
0.7692446512	k nearest neighbor
0.7692408483	electroencephalographic
0.7692386604	tracking control
0.7692381033	escherichia
0.7692136441	reusable
0.7692016352	intake
0.7691822253	coalition structure
0.7691681909	intercarrier
0.7691681909	homeland
0.7691605328	local optimum
0.7691564462	api
0.7691564021	content dissemination
0.7691368789	wireless environments
0.7691341789	grid service
0.7691195192	boundedness
0.7691020266	child
0.7690938411	curation
0.7690931170	pricing
0.7690568282	automorphism
0.7690260412	packing
0.7690259375	unconscious
0.7689915718	average delay
0.7689723569	parameter variation
0.7689713868	mobile broadband
0.7689627589	orientation field
0.7689359862	ecosystems
0.7689245806	seller
0.7689198035	communication channel
0.7689107980	hybridization
0.7689083898	toxicity
0.7688982770	canonical
0.7688766080	emergent behavior
0.7688574618	unwrapping
0.7688501268	revolution
0.7688181712	diffie
0.7688168541	probabilistic model
0.7688139981	handheld device
0.7688115884	seamless
0.7688047118	senior
0.7688003151	parallel architecture
0.7687859846	internal states
0.7687806360	single image
0.7687768804	lifting
0.7687732176	safe
0.7687709499	mitigation techniques
0.7687694015	fourth
0.7687616124	rate region
0.7687591085	turbulence
0.7687588177	repetitive control
0.7687487963	highly accurate
0.7687404754	multi variate
0.7687393396	left hand
0.7687376763	submodular
0.7687128162	chronic
0.7687088936	compute unified device architecture
0.7687045190	adapting
0.7687003559	focal
0.7686777123	mobile application
0.7686724362	things
0.7686506611	transconductance
0.7686486751	internet
0.7686483980	holistic
0.7686339825	vehicular
0.7686199562	security concerns
0.7686166559	seizure
0.7686147809	intermediate language
0.7686092592	equalization
0.7685997459	van der waals
0.7685973302	erosion
0.7685756873	caudate
0.7685750313	db
0.7685600519	tracker
0.7685568237	firing patterns
0.7685504763	cerebral
0.7685458589	fuzzy integral
0.7685247556	extracting
0.7685221168	stochastic processes
0.7685037882	sagittal
0.7684868791	exploratory
0.7684815897	context aware computing
0.7684798376	polymer
0.7684712453	motors
0.7684641419	tunneling
0.7684634471	rank correlation
0.7684325683	input device
0.7684301065	density evolution
0.7684003780	block level
0.7683998065	routing decisions
0.7683983028	search spaces
0.7683837154	programming environment
0.7683703473	replication
0.7683572926	sorting
0.7683471973	mix
0.7683371233	wireless relay
0.7683209838	comprehensive
0.7683207562	divergences
0.7683169663	analog
0.7683087062	semi active
0.7682999051	comparative
0.7682903525	immunity
0.7682808944	corrective actions
0.7682515244	tank
0.7682467966	sentiment
0.7682439013	pin
0.7682388641	glucose
0.7682252276	site specific
0.7682135546	seismic
0.7682051898	spiral
0.7681972194	watermarked
0.7681956449	linear transformation
0.7681842932	sensor web
0.7681541346	causal
0.7681458929	factorization
0.7681067638	buy
0.7681008485	circuit simulation
0.7680763414	photo
0.7680686937	quantum state
0.7680485104	instance selection
0.7680482944	renewal process
0.7680473645	markup
0.7680369159	geographical
0.7680312291	negotiation
0.7680274158	mammalian
0.7680260436	linear receivers
0.7680163877	anarchy
0.7680079326	texture images
0.7679944228	manufacturing company
0.7679878648	petri net model
0.7679869837	kullback
0.7679848554	surrogate
0.7679670050	procedural
0.7679611788	harness
0.7679563531	forest
0.7679444548	fixed rate
0.7679347579	herein
0.7679229945	visual descriptors
0.7678989472	inter symbol interference
0.7678943968	bleeding
0.7678582825	position tracking
0.7678530675	knowledge society
0.7678514744	reflective
0.7678350048	minimisation
0.7678279532	rest
0.7677665981	emerging trends
0.7677635989	spectral estimation
0.7677538404	brush
0.7677500696	domestic
0.7677381033	verlag
0.7677240154	exhaustive
0.7677175683	hydrodynamic
0.7677011692	haar like features
0.7676607036	video stabilization
0.7676553469	opinion
0.7676464054	prime
0.7676415553	sampling rates
0.7676272877	greedy
0.7676226209	locality sensitive
0.7676173378	comput
0.7676118549	mid level
0.7675658320	algebra
0.7675500587	storage device
0.7675484600	finger
0.7675236926	heterogeneous environments
0.7675179945	efficient frontier
0.7675144585	assisted
0.7675008587	leading edge
0.7674877575	corporations
0.7674877553	postsynaptic
0.7674771157	autonomous
0.7674544809	game theoretical
0.7674408683	high energy
0.7674344956	quantizer
0.7674195770	mpi programs
0.7674168964	act
0.7674155121	profiling
0.7674003469	ultra
0.7673845830	metal
0.7673713117	conjecture
0.7673689176	lag
0.7673557659	lift
0.7673518419	skew
0.7673350550	email
0.7673333708	echelon
0.7673282930	usage control
0.7673260903	geophysical
0.7673138067	surely
0.7673062301	assuming
0.7673059593	security protocol
0.7672968856	notification
0.7672359342	impact factors
0.7672339851	spatial pattern
0.7672315170	omega
0.7672054800	interactive systems
0.7672033086	fractional
0.7671942678	business goals
0.7671942028	experience report
0.7671775230	exotic
0.7671659053	retinal image
0.7671554991	redistribution
0.7671547101	landmark
0.7671517723	url
0.7671363367	cardinal
0.7671269952	lingual
0.7670805790	handover scheme
0.7670676501	multivariate time series
0.7670660783	quantization
0.7670566898	weighting factors
0.7670561758	e commerce
0.7670538079	user behaviors
0.7670451264	rapidly changing
0.7670342832	language learners
0.7670162847	belief
0.7669990986	card
0.7669913991	fusion scheme
0.7669779425	edge connected
0.7669226342	outlet
0.7669159117	prover
0.7669146327	acid
0.7669097330	intra class
0.7669078795	printing
0.7668920638	phase synchronization
0.7668867038	vast
0.7668818546	voting rules
0.7668807811	toy
0.7668802895	information flow control
0.7668490488	locally optimal
0.7668422528	blurred
0.7668365167	starting
0.7668206922	active filter
0.7668196303	fingerprint image
0.7668153206	assembly lines
0.7668067789	chi
0.7668040046	genetic interactions
0.7667878831	vulnerability
0.7667784955	key words
0.7667640211	outdoor
0.7667582852	radio resources
0.7667555168	pon
0.7667512600	transferring
0.7667331434	shopping
0.7667126414	renewal
0.7667103286	indicative
0.7667036548	preservation
0.7666953236	multicast protocol
0.7666882487	cad models
0.7666822551	chest
0.7666813419	drag
0.7666588520	questionnaire survey
0.7666444057	cmmi
0.7666432647	matrix valued
0.7665883402	feedback delay
0.7665790701	asset
0.7665688725	rfid based
0.7665370775	geology
0.7665209673	dynamic optimization problems
0.7665017228	recurrent
0.7664568820	face databases
0.7664546964	binaural
0.7664517718	protein coding
0.7664435159	learning experiences
0.7664410246	search strategy
0.7664365789	fracture
0.7664283526	mobile wireless networks
0.7664195867	vowel
0.7664172101	en
0.7664165296	appreciation
0.7664085412	anti
0.7664065659	grid systems
0.7663839938	institutional theory
0.7663765116	election
0.7663478849	average degree
0.7663242219	temporal consistency
0.7663217059	critical points
0.7663150680	transceiver
0.7663064663	microscopy images
0.7662897306	pervasive computing environment
0.7662872292	hamming
0.7662645476	exhaust
0.7662188732	apriori algorithm
0.7662107081	forests
0.7662039101	healthcare
0.7662001704	diesem
0.7661994622	turbulent
0.7661520897	ra
0.7661499909	gaussian
0.7661325357	surveillance
0.7661311332	compression rates
0.7661138192	portfolio selection problem
0.7660985454	teeth
0.7660918791	mobility aware
0.7660895508	road
0.7660817620	valuation
0.7660793282	compressive
0.7660770123	false alarm rates
0.7660698139	boundary points
0.7660654103	code ensembles
0.7660506967	search heuristics
0.7660458157	query result
0.7660195644	healthcare providers
0.7659941440	interchangeable
0.7659935756	minimum cardinality
0.7659865598	artificial intelligent
0.7659821565	constellation
0.7659781076	impact assessment
0.7659735383	interior
0.7659732376	equilibria
0.7659328570	home environments
0.7659221588	structure tensor
0.7659056626	farms
0.7658824298	infinite state
0.7658583155	experimentation
0.7658568603	lotka
0.7658536259	quick
0.7658145387	living cells
0.7658034317	cmos process
0.7657849447	pitch estimation
0.7657332807	imbalanced
0.7656923085	inter cluster
0.7656878019	scada
0.7656649557	unusual
0.7656617172	satellite communication
0.7656595676	error analysis
0.7656536962	temporal correlations
0.7656476709	technology transfer
0.7656030890	blow
0.7655917372	quality factor
0.7655876641	dialog
0.7655763759	minimum delay
0.7655577475	band pass
0.7655537947	upper level
0.7655449604	arid
0.7655394401	active compounds
0.7655167317	relational data
0.7655055079	aspiration
0.7654964798	moduli
0.7654907910	spatially adaptive
0.7654812661	area coverage
0.7654717938	recognizing
0.7654661909	regressive
0.7654376428	microstructure
0.7654313419	trigonometric
0.7654079382	planning problem
0.7653956819	preferential
0.7653813960	snmp
0.7653728682	odometry
0.7653705318	dynamic power
0.7653617639	body surface
0.7653572347	traversal
0.7653508852	packet transmissions
0.7653392900	automatic identification
0.7653340287	intra
0.7653240865	minimum mean square error
0.7653189584	unary
0.7653090829	adopting
0.7652979470	stroke patients
0.7652940453	repository
0.7652848550	computing education
0.7652607965	letting
0.7652598053	flop
0.7652585447	analytic solutions
0.7652383748	infectious
0.7652372439	incremental
0.7652243554	importantly
0.7651982729	dual
0.7651966440	exemplary
0.7651811047	relativity
0.7651697726	response times
0.7651645121	social relations
0.7651531763	audit
0.7651251775	reinforce
0.7651125667	zero forcing zf
0.7651045755	spatial resolutions
0.7650923291	symbolic computation
0.7650841055	cosine
0.7650745809	pim
0.7650744917	time division multiple access tdma
0.7650737008	microcontroller
0.7650693583	mel frequency
0.7650456321	relax
0.7650455005	decades ago
0.7650143817	control protocol tcp
0.7649961456	type inequalities
0.7649949103	high accuracy
0.7649890459	customization
0.7649660140	high dimension
0.7649620375	root mean square
0.7649584467	visual similarity
0.7648804211	handset
0.7648718355	feature based
0.7648605634	rao lower bound crlb
0.7648537270	reference signals
0.7648534708	sum capacity
0.7648477269	convective
0.7648117177	topology optimization
0.7648105466	hri
0.7648026246	evolution strategies
0.7647962515	decidability
0.7647776316	competency
0.7647732648	decoupling control
0.7647727507	patrol
0.7647709720	akin
0.7647532196	learner
0.7647431996	female
0.7647358811	local area networks
0.7647141235	community members
0.7647101474	commuting
0.7647019187	nakagami
0.7646840182	facts
0.7646763366	power optimization
0.7646683547	biped
0.7646644799	80216m
0.7646553968	compression algorithm
0.7646439855	processor architecture
0.7646430126	mount
0.7646418706	double
0.7646266975	learning outcome
0.7646025086	dynamic spectrum
0.7645958394	flood
0.7645907537	concurrent
0.7645895161	emotion
0.7645886695	segmentation algorithm
0.7645779871	predicting
0.7645759505	nakagami m fading channels
0.7645653819	transmit receive
0.7645195382	classifying
0.7644995417	neighboring nodes
0.7644854895	space frequency
0.7644785567	colouring
0.7644383482	innate
0.7644084915	epistemic
0.7644018840	mixtures
0.7643705967	audio quality
0.7643599727	mobile platforms
0.7643536504	radiation
0.7643395029	temporally
0.7643166736	risk evaluation
0.7643053223	reservations
0.7643047528	text collections
0.7642916252	threaded
0.7642838436	unicast
0.7642672122	cardiac
0.7642639038	overlay
0.7642544915	piv
0.7642503252	vegetation
0.7642257857	pairwise
0.7642199791	wheel
0.7642147293	epon
0.7642143293	modulo
0.7642119067	chat
0.7642030224	semiconductor devices
0.7641937613	helical
0.7641902284	phylogenetic analysis
0.7641831509	gene networks
0.7641750250	closing
0.7641662125	exemplar based
0.7641624006	meteorological
0.7641615831	side channel attacks
0.7641588106	satellite image
0.7641424621	cooperates
0.7641298386	archives
0.7641260784	conclusions
0.7641023073	relaying
0.7641000699	invertible
0.7640895669	communication delays
0.7640809268	spec
0.7640584388	decoupling
0.7640535732	cent
0.7640370902	p2p
0.7640325292	controlled oscillator
0.7640296597	noisy observations
0.7640233070	spirit
0.7640102821	demonstration
0.7640000157	extended abstract
0.7639878405	attack scenarios
0.7639620116	object oriented programs
0.7639598276	semantically meaningful
0.7639575835	cuts
0.7639570699	logical framework
0.7639527538	pareto
0.7639511560	leibler
0.7639125105	psa
0.7638969942	weak signal
0.7638920734	clones
0.7638910680	higher resolution
0.7638901147	aircraft
0.7638894470	exception
0.7638722563	temporal variation
0.7638676987	invited paper
0.7638585301	optimisation problems
0.7638530727	backup paths
0.7638397293	pdms
0.7638347363	recursive
0.7638320675	background modeling
0.7638311248	fragile
0.7638210909	governmental
0.7637518577	identifier
0.7637470759	etching
0.7637271560	processing unit
0.7637256953	quadratic
0.7636780453	watermarking
0.7636765362	random order
0.7636660951	web searching
0.7636544530	borrowed
0.7636293092	transportation
0.7636149238	alzheimers
0.7636111715	le
0.7636063960	crt
0.7635900748	spontaneous
0.7635891426	warfare
0.7635723581	tell
0.7635696680	order preserving
0.7635573522	co channel interference
0.7635409418	probabilistic neural networks
0.7635373249	impossibility
0.7635354317	levenberg
0.7635277899	defeat
0.7635128095	personal preferences
0.7634977483	ubm
0.7634977483	pbl
0.7634367124	bandwidth efficiency
0.7634197822	lsp
0.7634119491	blocking probabilities
0.7633949168	semidefinite
0.7633848684	automation
0.7633814254	holomorphic
0.7633636626	animation
0.7633393652	eigenvalue problems
0.7633358483	pacs
0.7633253449	asynchronous
0.7633126438	basis expansion
0.7633017905	pre filtering
0.7632946756	localization algorithms
0.7632691734	denoising
0.7632480157	approximation algorithms
0.7632375559	elderly
0.7632346267	independence
0.7632180362	docking
0.7632178015	moving vehicle
0.7632137017	ssm
0.7631967694	protection schemes
0.7631963416	skin detection
0.7631608521	management framework
0.7631314679	software systems
0.7631213190	concatenation
0.7631149850	eo
0.7630922512	news
0.7630893321	video surveillance systems
0.7630872571	program transformations
0.7630757060	esl
0.7630745809	nurbs
0.7630615796	iii
0.7630364127	acute
0.7630292172	narrowband
0.7630124525	stabilizing
0.7629868556	automata
0.7629856516	lipid
0.7629834781	peptide
0.7629794440	simplicial
0.7629743709	hand crafted
0.7628969691	cone
0.7628923548	marker
0.7628888665	total transmit power
0.7628796858	labeling scheme
0.7628795504	extending
0.7628777707	microscopic
0.7628727483	sna
0.7628727483	opc
0.7628563628	premotor
0.7628547394	user item
0.7628514708	communication cost
0.7628385027	facility
0.7628096736	dictionary
0.7628021734	discounted
0.7627979462	single item
0.7627903274	gesture
0.7627833531	permutation
0.7627801300	crisis
0.7627751869	performance comparison
0.7627538952	qualitative
0.7627179300	medium sized
0.7627147293	arima
0.7627087211	hosting
0.7627044318	acoustic
0.7626761206	silica
0.7626683525	taking
0.7626633841	shedding
0.7626578365	computational resources
0.7626464713	fuzzy random variables
0.7626374199	mixed type
0.7626369296	probabilistic graphical
0.7625924842	lpv
0.7625708387	immune
0.7625619905	align
0.7625305695	mld
0.7625252962	spline
0.7625165049	man
0.7625150743	al
0.7625117963	logics
0.7624876027	compliance
0.7624816564	cnt
0.7624751980	muscular
0.7624687345	odor
0.7624585535	ring
0.7624556731	ubiquitous
0.7624545594	clique
0.7624482789	atlas based
0.7624433858	era
0.7624427979	repertoire
0.7624397293	rwa
0.7624322780	set cover problem
0.7624114803	view point
0.7623976673	correction
0.7623971346	mf
0.7623811966	simplex method
0.7623539900	stability conditions
0.7623502345	adder
0.7623452352	grams
0.7623395029	separable
0.7623275632	pseudo
0.7623254040	performance bottlenecks
0.7623182596	international workshop
0.7623109387	network wide
0.7623101425	inertial
0.7623052194	national science
0.7623013393	computing power
0.7622870539	hypergeometric function
0.7622838088	pn
0.7622800485	scatter
0.7622752962	rewriting
0.7622690613	exploiting
0.7622592330	production systems
0.7622549125	dm
0.7622469357	risc
0.7622451666	routing schemes
0.7622431904	metabolism
0.7622400800	power estimation
0.7622244086	intelligence
0.7622225999	gases
0.7622196997	anatomical structures
0.7622179502	photon
0.7622078431	genome
0.7622020984	grossberg
0.7622004983	generator
0.7621692913	shaft
0.7621662571	institutional
0.7621641305	data locality
0.7621601991	cfa
0.7621389504	algorithmic
0.7621342833	confluent
0.7621237633	leach
0.7621166340	handoff
0.7621079954	wear
0.7621071355	displaying
0.7621014038	conceptual
0.7620977483	dcm
0.7620977483	dtm
0.7620977483	mpe
0.7620709280	exploring
0.7620568665	polarization
0.7620511391	recurrent neural
0.7620402978	tail
0.7620228121	relevant documents
0.7620146761	channel switching
0.7620118858	port numbers
0.7620063380	living
0.7619524412	integer valued
0.7619486163	gaps
0.7619483343	probabilistic
0.7619395182	discourse
0.7619379769	lqr
0.7619327935	competitiveness
0.7619314507	regularization
0.7619205124	parameter variations
0.7619109315	residue
0.7619055418	chamber
0.7618991101	nurses
0.7618946917	microscopy
0.7618848200	partitioned
0.7618808967	factor graph
0.7618789705	solar
0.7618788223	signal attenuation
0.7618713859	adl
0.7618701364	bearing
0.7618677927	password
0.7618563750	nonexpansive
0.7618562076	lqg
0.7618463995	author
0.7618426956	revealing
0.7618243654	wild
0.7618216835	drainage network
0.7617784086	ensemble methods
0.7617743003	compact
0.7617643421	weighting factor
0.7617624005	social robots
0.7617346380	hemisphere
0.7617338582	disaster
0.7616995486	padding
0.7616959004	retinopathy
0.7616804488	specular
0.7616720942	tap
0.7616431094	stdp
0.7616430049	virtex
0.7616362749	transparent
0.7616226723	cultural
0.7616171568	resilient
0.7616165483	jvm
0.7616036935	cohort
0.7615977483	ldo
0.7615943438	uncompressed
0.7615899734	hair
0.7615852767	maxima
0.7615351703	failure probability
0.7615235370	estimating
0.7615220848	millimeter
0.7615176035	reduction technique
0.7615122892	unified device architecture cuda
0.7615100266	path tracking
0.7615091770	simplifying
0.7614899436	emergencies
0.7614710848	automatic registration
0.7614594310	extinction
0.7614430049	ziv
0.7614299173	speech segments
0.7614265619	cards
0.7614074060	channel model
0.7613948499	todays
0.7613886402	linear differential equations
0.7613854097	mouse
0.7613718556	reputation systems
0.7613616414	partnerships
0.7613520744	truthful
0.7613473217	vbr
0.7613412847	inventory
0.7613358483	klt
0.7613355293	john
0.7613085327	sdl
0.7613010646	rtscts
0.7612962800	bytecode
0.7612940736	institution
0.7612790333	gals
0.7612657616	cash
0.7612267386	sequencing
0.7612228945	background
0.7612180042	kinetic
0.7611963622	acoustic features
0.7611878775	vsm
0.7611862076	arx
0.7611837745	reservation
0.7611793039	predictive
0.7611739395	cdr
0.7611739395	mdct
0.7611601991	lfsr
0.7611556771	innovation
0.7611532691	transducers
0.7611525679	grid scheduling
0.7611386714	lvcsr
0.7611330292	convergence speed
0.7611324474	economies
0.7611301407	focussing
0.7611262180	mmse criterion
0.7611237633	vpn
0.7611071038	graphical representations
0.7611063960	ssim
0.7610977483	csm
0.7610857686	aal
0.7610757060	auv
0.7610305695	cmc
0.7610264932	security analysis
0.7610195975	pain
0.7610114620	constant size
0.7610023623	gmpls
0.7609977483	imc
0.7609942540	cscw
0.7609860768	decision making processes
0.7609808942	packet loss ratio
0.7609802604	feedforward
0.7609597486	ct image
0.7609544739	march
0.7609385055	chart
0.7609379769	mhd
0.7609379769	asm
0.7609260646	avc
0.7609234222	textural
0.7609139127	csa
0.7609132894	mbms
0.7609048351	ordered
0.7608810360	multi sink
0.7608759149	enrichment analysis
0.7608544333	random struct
0.7608536020	glance
0.7608352598	elaboration
0.7608172069	entropy
0.7608057409	enhancing
0.7607945860	inconsistency
0.7607944637	antibody
0.7607841737	adm
0.7607695731	max flow
0.7607665351	xacml
0.7607665351	afm
0.7607596228	mac
0.7607499598	kalman
0.7607268068	cost benefit
0.7607132908	complex network
0.7607112584	maximizing
0.7607012780	bmi
0.7606944505	chip chip
0.7606937789	gaming
0.7606891604	maximal ratio
0.7606578439	adverse effects
0.7606539924	adp
0.7606415530	emphasis
0.7606408719	analogue
0.7606272060	clock distribution
0.7606044563	evaluation measures
0.7605867717	inter view
0.7605857686	dpa
0.7605824109	incorporating
0.7605797635	numerical stability
0.7605747982	crowd
0.7605660512	maximal
0.7605630276	prototyping
0.7605501546	functional language
0.7605465465	retail
0.7605402407	multiple classifiers
0.7605384372	autonomic systems
0.7605250238	fdr
0.7605177429	transforming
0.7605131010	ldpc
0.7605114866	electron
0.7605114044	acoustic wave
0.7605047837	ranking function
0.7604937530	food
0.7604908492	algebraic
0.7604890498	target language
0.7604809573	degeneration
0.7604703269	volumetric
0.7604412251	psm
0.7604396759	consensus
0.7604217450	flash
0.7604195786	arma
0.7604115733	lyapunov
0.7603727483	rdma
0.7603727483	cqi
0.7603713859	vliw
0.7603473217	crc
0.7603469818	soil
0.7603341737	rrt
0.7603272114	electronic
0.7603055251	micro
0.7603036982	automatic discovery
0.7603004574	soundness
0.7602969762	total profit
0.7602920100	bin
0.7602860344	fault tolerant control
0.7602841737	mca
0.7602841737	dce
0.7602707287	consulting
0.7602672894	advancement
0.7602524353	sdf
0.7602411146	reactive
0.7602405305	tmr
0.7602378516	mailing
0.7602066878	logistic regression model
0.7602064699	linguistic resources
0.7601810051	countable
0.7601809183	bayesian model
0.7601804695	non negative matrix factorization
0.7601739395	evm
0.7601391829	data sources
0.7601382665	rtos
0.7601382121	pointing
0.7601375386	pcm
0.7601063960	asar
0.7600978154	copyright
0.7600972969	modal
0.7600857686	cse
0.7600720467	triangle
0.7600679885	high bandwidth
0.7600594800	cubic
0.7600478478	adding
0.7600331156	cabac
0.7600331156	fda
0.7600326301	polling
0.7600305695	mvc
0.7600184852	gpgpu
0.7600128810	constructing
0.7600126522	tlm
0.7600043763	sonar
0.7600027825	desire
0.7599887354	physics
0.7599883894	magnetic stimulation
0.7599832044	power levels
0.7599732480	denial of service dos attacks
0.7599620473	pam
0.7599575769	vehicle communications
0.7599520125	lcs
0.7599514209	driver
0.7599494293	motion coordination
0.7599397293	dma
0.7599394611	dicom
0.7599379769	brdf
0.7599379769	zmp
0.7599379769	lsa
0.7599339924	sph
0.7599200355	movers
0.7599190183	correlated rayleigh
0.7599188816	strata
0.7599139127	dpll
0.7599139127	lvq
0.7599071972	tdc
0.7598938325	hypergeometric
0.7598818248	dynamic textures
0.7598786748	torque control
0.7598633707	soft
0.7598609068	orientation estimation
0.7598594316	capacity region
0.7598509286	foundation
0.7598398167	cyclic
0.7598341574	quasi interpolation
0.7598193068	axon
0.7598090747	normalize
0.7597948212	single frame
0.7597902532	sensitive data
0.7597769444	small sample
0.7597665773	schools
0.7597592172	anomaly based
0.7597443929	esprit
0.7597398180	dual decomposition
0.7597347181	rule language
0.7597232556	ring topology
0.7597147503	intangible
0.7596959309	design space
0.7596739395	kpca
0.7596739395	rsm
0.7596514567	oa
0.7596159078	air
0.7596092969	anonymity
0.7595977483	csr
0.7595977483	mpr
0.7595977483	bsn
0.7595976129	fiber
0.7595727803	ergodic
0.7595572960	graph theoretical
0.7595560788	nutrient
0.7595520079	b spline
0.7595496930	evade
0.7595460695	pack
0.7595305695	tpm
0.7595194242	symmetric positive definite
0.7595055623	saddle
0.7594958640	equalizer
0.7594869992	pram
0.7594582917	autonomous systems
0.7594388641	behavioral
0.7594272821	printed
0.7594256923	finite capacity
0.7594123971	trust model
0.7594115560	image space
0.7594055609	affective state
0.7593949994	converter
0.7593880211	malware
0.7593843396	computer aided diagnosis
0.7593800803	cooperative
0.7593771099	process models
0.7593713859	kegg
0.7593672386	student
0.7593458216	fdi
0.7593422126	screening
0.7593376078	coherence
0.7593331231	dpc
0.7593316946	slm
0.7593283469	image based
0.7593187799	handover
0.7592959948	depth first search
0.7592884869	chr
0.7592644150	ewma
0.7592578775	scorm
0.7592499606	spectroradiometer
0.7592385604	learning effect
0.7592337597	reconfiguration
0.7592334279	estimation error
0.7592276397	emi
0.7592200854	belief propagation algorithm
0.7592155661	through silicon vias
0.7592121838	distinguishing
0.7591940073	intermediary
0.7591932839	inversion
0.7591830351	enumeration
0.7591697120	associative classification
0.7591657202	mc cdma systems
0.7591653687	80211g
0.7591336618	silent
0.7591201105	fast motion estimation
0.7590992599	toolkit
0.7590992441	cfar
0.7590753660	scalable coding
0.7590706579	neumann boundary
0.7590444938	matrix equations
0.7590444429	egee
0.7590330200	strike
0.7590308815	software security
0.7590258010	multiuser
0.7589997898	asd
0.7589943695	wireless ad hoc
0.7589761684	mmorpg
0.7589761684	stoc
0.7589756187	erasure
0.7589751665	optimizer
0.7589718955	nets
0.7589704267	health record
0.7589506013	law
0.7589417325	zone
0.7589403407	pso based
0.7589356375	nations
0.7589330307	orchestrate
0.7589258926	hdtv
0.7589189992	reconfigurable processor
0.7589110110	locus
0.7589065408	cornerstone
0.7588970250	circulation
0.7588643908	guide
0.7588516417	stc
0.7588512055	ad hoc networking
0.7588492768	purpose
0.7588484838	balancing
0.7588477482	today
0.7588462175	consolidate
0.7588331231	emr
0.7588215188	boolean networks
0.7588144150	ecu
0.7587673258	eap
0.7587603437	conveyor
0.7587599600	split
0.7587405305	mlc
0.7587308368	ant
0.7587286110	cn
0.7587234688	advection
0.7587144203	educational
0.7587015010	instruction
0.7586955560	phonemic
0.7586933019	emotional
0.7586803480	map estimation
0.7586801343	wells
0.7586694710	site prediction
0.7586595794	algebras
0.7586545945	wireless multihop
0.7586479850	data sets
0.7586465107	visual search
0.7586450402	sufficient condition
0.7586396685	incumbent
0.7586370350	multi criteria decision
0.7586262111	srm
0.7586201041	centralised
0.7586146072	tdm
0.7586133121	interaction patterns
0.7586131115	etm
0.7586103337	lpc
0.7586063390	reacting
0.7586052785	laplacian matrix
0.7586019396	fault prediction
0.7585880670	delineation
0.7585836018	damage detection
0.7585795047	second order cone programming
0.7585741648	circuit level
0.7585540517	intelligent
0.7585514928	semiconductor
0.7585478709	proper interval
0.7585399614	usability
0.7585204685	perspectives
0.7584884837	personal data
0.7584812523	umls
0.7584708976	optimizing
0.7584545298	posterior cingulate
0.7584496480	ota
0.7584397293	ogc
0.7584378775	rvm
0.7584341173	rcs
0.7584307773	correlation analysis
0.7584220877	dpm
0.7584220877	oov
0.7584220877	vrp
0.7584139127	tcam
0.7584055695	nfc
0.7583848393	sfs
0.7583777546	spreading sequences
0.7583683445	avs
0.7583543160	root mean square error
0.7583541772	scop
0.7583539752	winning strategy
0.7583406062	cordic
0.7583406062	jit
0.7583400868	nonconvex
0.7583400153	network centric
0.7583341737	ise
0.7583319585	mui
0.7583230095	quasi
0.7583194866	maintainability
0.7583175925	portfolio
0.7583043492	medical applications
0.7583031730	carbon
0.7582862897	cut
0.7582570916	utilizing
0.7582520506	collective
0.7582254452	york
0.7581953064	hdl
0.7581776264	mimo
0.7581730011	spt
0.7581723479	bankruptcy
0.7581705052	information systems development
0.7581672807	mathematicians
0.7581613776	linkage
0.7581498573	molding
0.7581335630	contact points
0.7581159233	susceptible
0.7581131115	ncbi
0.7581099698	semantic representations
0.7581048759	utility computing
0.7580914383	rough
0.7580908879	context based
0.7580874423	timer
0.7580780712	takagi
0.7580428419	website
0.7580394150	sfbc
0.7580303378	bpn
0.7580102360	floating
0.7580089003	gradient domain
0.7579976017	transmission delay
0.7579944995	populate
0.7579872342	process management
0.7579747371	interactive art
0.7579747095	network flow
0.7579643900	gtx
0.7579627528	gpr
0.7579627528	ssa
0.7579518111	amateur
0.7579481554	visual content
0.7579412251	pvt
0.7579412177	respecting
0.7579397293	ostbc
0.7579139127	lru
0.7579139127	eca
0.7578778620	rational
0.7578651339	moment
0.7578621711	back propagation neural network
0.7578517314	cons
0.7578469304	multi hop wireless
0.7578440349	cep
0.7578388930	distance based
0.7578331231	csf
0.7578331231	dca
0.7578282023	sndr
0.7578089498	query refinement
0.7577749880	hmd
0.7577673258	icu
0.7577564695	cdm
0.7577556801	practitioner
0.7577529602	legal
0.7577514633	graph layout
0.7577475573	lncs
0.7577433466	temperature variations
0.7577282190	science
0.7576935576	search algorithm
0.7576674096	fis
0.7576652787	advertising
0.7576578775	pvs
0.7576562473	inter arrival
0.7576545441	dblp
0.7576407756	rd
0.7576390062	floss
0.7576256440	binary erasure channel
0.7576120519	recognition rates
0.7576103407	rectangular
0.7575951647	discriminative learning
0.7575943378	artificial neural
0.7575895740	doping
0.7575818027	pull
0.7575812713	qfd
0.7575766662	disposal
0.7575654521	irregular ldpc
0.7575620753	nominal
0.7575452176	voc
0.7575378775	tlp
0.7575348689	etsi
0.7575253057	regional
0.7575208799	logarithmic
0.7575005835	anc
0.7574777169	passive
0.7574722076	multiprocessor
0.7574583286	class classifiers
0.7574563539	min
0.7574528300	neurodegenerative
0.7574259727	cta
0.7574213107	image collection
0.7574140496	dms
0.7574072690	distributed simulation
0.7574071972	dsc
0.7573999592	credits
0.7573975950	ehr
0.7573931587	adaptive beamforming
0.7573808667	monolithic
0.7573740747	hulls
0.7573721522	detection method
0.7573661229	tagging
0.7573633600	workflow
0.7573416819	characteristic function
0.7573382348	positioning
0.7573365751	sst
0.7573283810	head related
0.7573244429	fdd
0.7573191538	synapse
0.7573115658	homology
0.7573027498	pointer
0.7572999026	minlp
0.7572945778	highway
0.7572924873	batch
0.7572852090	loss rates
0.7572644150	vmm
0.7572630831	counting
0.7572600589	fault model
0.7572405305	atc
0.7572389028	sma
0.7572328617	packet level
0.7572163779	alpha
0.7572081231	fso
0.7571876905	lexical
0.7571864557	association
0.7571778246	hsi
0.7571771576	field experiment
0.7571666828	large data sets
0.7571643900	cif
0.7571380842	duplicate
0.7571275676	servo control
0.7571249442	quantum algorithms
0.7570958392	image features
0.7570794037	systemic
0.7570652292	dye
0.7570559541	streaming data
0.7570443450	oxygen
0.7570288635	lie
0.7570227109	invoking
0.7569967803	distress
0.7569938180	descriptive
0.7569917326	broadcast
0.7569898210	imm
0.7569787419	differentiability
0.7569541560	normalized
0.7569434586	correspondence problem
0.7569289031	forecasting model
0.7569228427	direct sequence
0.7569017674	dw
0.7568913966	pulsewidth
0.7568870922	emission
0.7568747898	gep
0.7568683445	bsc
0.7568636769	resource requirements
0.7568479979	human diseases
0.7568408091	neighborhood graph
0.7568068984	financial
0.7567988204	comment
0.7567840663	msc
0.7567716559	aam
0.7567665351	olsr
0.7567269284	breathing
0.7567075804	private sector
0.7566994183	strategic
0.7566990374	rbfnn
0.7566934280	lb
0.7566895010	maintenance activities
0.7566804020	multipath
0.7566537120	neighboring cells
0.7566448596	assessment tool
0.7566398610	workspace
0.7566389370	cpm
0.7566330909	digital games
0.7566282705	ventral
0.7566181226	infarction
0.7566067100	creative
0.7566020458	scs
0.7565961074	large deformation
0.7565730627	dtv
0.7565628658	covert
0.7565174241	robotic systems
0.7565155296	dose
0.7565132238	big
0.7564988361	channel estimation scheme
0.7564810817	dmu
0.7564786907	twenty
0.7564751993	dll
0.7564651869	nemo
0.7564546830	rapid
0.7564520654	feedback channel
0.7564508404	cgh
0.7564508404	cctv
0.7564313211	decision procedures
0.7564301404	plates
0.7564273688	randomness
0.7564264466	forecast
0.7564243488	probabilistic models
0.7564111364	iterative
0.7564091898	cramer
0.7564063510	lapse
0.7564048192	bsp
0.7564005615	discriminant
0.7564001156	protein interaction network
0.7563985496	mci
0.7563985496	npd
0.7563928130	drinking
0.7563801513	ilc
0.7563798694	strategic management
0.7563742544	pomdp
0.7563444912	sfdr
0.7563339168	ukf
0.7563309484	tutoring
0.7563307829	lossy
0.7563151837	contemporary
0.7563117358	interfaced
0.7563002273	ssl
0.7562900653	editing
0.7562784338	design criteria
0.7562695620	education
0.7562662777	clinical diagnosis
0.7562651384	light intensity
0.7562644150	wban
0.7562451772	doubly
0.7562446048	link analysis
0.7562408270	attribute
0.7562184256	accurate localization
0.7562081396	user selection
0.7561999328	string
0.7561870982	wls
0.7561839251	ssd
0.7561799283	synchronous
0.7561718593	diarization
0.7561705553	heating
0.7561705377	impaired
0.7561568794	retrospective analysis
0.7561545793	adult
0.7561471974	linguistic
0.7561339937	transcription
0.7561184870	cnc
0.7561174345	space time coding
0.7561159117	judge
0.7561113331	attachment
0.7560992269	excitatory
0.7560858436	asip
0.7560654622	greedy algorithms
0.7560441519	trading
0.7560425582	verifier
0.7560348114	reusability
0.7560048665	multiple valued
0.7559887863	deploying
0.7559839251	lbp
0.7559359419	observability
0.7559259727	ospf
0.7558848605	sars
0.7558815053	hrv
0.7558748897	tracing
0.7558652472	forensic analysis
0.7558606127	container
0.7558475396	ems
0.7558410310	joint space
0.7558319585	msa
0.7558270221	codon
0.7558246131	biochemical systems
0.7558182186	affine
0.7558148689	sqp
0.7558129008	parallel implementations
0.7558088200	teaching
0.7558083281	isolating
0.7558048192	lle
0.7557922174	power minimization
0.7557879720	vanet
0.7557801427	frequency division
0.7557761432	technology scaling
0.7557692669	metaheuristic
0.7557593061	aic
0.7557585355	networks on chip noc
0.7557526946	intersymbol
0.7557287740	pattern based
0.7557258284	manufacturing process
0.7557219804	hb
0.7557189770	respiration
0.7557160831	vb
0.7557135639	surgical
0.7557092167	logistic
0.7557002704	temporal locality
0.7556814648	suggestion
0.7556764781	tuple
0.7556660560	actuated
0.7556657560	spl
0.7556558463	intelligibility
0.7556415351	rtt
0.7556339200	ecological
0.7556281628	online social networking
0.7556165081	connecting
0.7556093600	improved genetic algorithm
0.7556068812	ipc
0.7556066720	small footprint
0.7556041478	threefold
0.7555642617	cdn
0.7555626692	linearization
0.7555621891	radio transmission
0.7555514560	file replication
0.7555426519	sea
0.7555378162	banking
0.7555322840	localization
0.7555314926	audio
0.7555282471	higher order logic
0.7555200942	sca
0.7555156322	symmetry
0.7554939776	bandwidth request
0.7554540005	theorem
0.7554415581	transaction
0.7554412572	nids
0.7554305137	approximation error
0.7554087647	product configuration
0.7554011050	information sources
0.7553975950	flc
0.7553951763	wsrf
0.7553814712	medline
0.7553669663	private
0.7553577809	dark
0.7553554024	first person shooter
0.7553489080	economic development
0.7553444861	active participation
0.7553411450	restricting
0.7553364630	led
0.7553264559	melanogaster
0.7553251469	complementary metal oxide semiconductor
0.7553180613	pathway
0.7552909155	search algorithms
0.7552771432	esa
0.7552613844	infin
0.7552530586	nonnegative matrix
0.7552198167	spectrum bands
0.7552039304	pointwise
0.7552025435	kernel matrix
0.7551866987	tts
0.7551705031	contract
0.7551618587	lod
0.7551588388	campus network
0.7551460071	hspice
0.7551403941	svm classification
0.7551361946	mining
0.7551351461	image super resolution
0.7551221432	warehouse
0.7551074948	fuzzy decision trees
0.7551026883	experimental comparison
0.7551006568	correcting
0.7550873257	karush kuhn
0.7550750000	nucleus
0.7550716881	source language
0.7550688068	photographic
0.7550601865	itil
0.7550552182	low end
0.7550524501	dsr
0.7550521244	subsumption
0.7550335393	replacement
0.7550031633	darpa
0.7549859452	cielab
0.7549758013	node failure
0.7549596528	water content
0.7549390756	ucd
0.7549377797	joint
0.7549351388	end user programming
0.7549280360	questioned
0.7549242067	default
0.7549120376	neuronal networks
0.7549063960	bic
0.7548905829	ceiling
0.7548792057	gray scale images
0.7548780148	ht
0.7548758255	spm
0.7548721559	universal
0.7548690236	tcm
0.7548660264	engineering
0.7548658985	meta learning
0.7548483766	bursty
0.7548416809	history
0.7548337746	probabilistic databases
0.7548285313	contact
0.7548215992	discriminating
0.7548156891	sequence similarity
0.7548113042	contamination
0.7547922293	maritime
0.7547851263	challenge
0.7547745771	fully decentralized
0.7547735242	trecvid
0.7547706576	visual language
0.7547595063	equivalence
0.7547508404	ocdma
0.7547508404	fcfs
0.7547243493	markov
0.7547234566	least squares support vector machine
0.7547061070	digital documents
0.7547056725	phoneme
0.7546808084	dissimilarity
0.7546778246	sse
0.7546776909	concealment
0.7546622920	accelerometer
0.7546577762	omg
0.7546377580	cps
0.7546361319	vcg
0.7546357178	geospatial
0.7546068812	cots
0.7546045914	integral
0.7546045441	amr
0.7545875498	managing
0.7545868564	sparsity
0.7545674581	elapsed
0.7545508535	tone
0.7545348612	xml keyword
0.7545265520	board
0.7545261795	dilemma
0.7545208438	rrm
0.7545191526	ogsa
0.7545100709	portable devices
0.7545068609	assemble
0.7545053422	web scale
0.7544857340	conjugate
0.7544710312	human arm
0.7544652270	conceptualization
0.7544471704	cast
0.7544451874	acs
0.7544288891	cai
0.7544131355	swrl
0.7544055520	spc
0.7544009702	expectation maximization em algorithm
0.7543975950	sctp
0.7543940215	elemental
0.7543774264	loudspeaker
0.7543697985	tailor
0.7543669403	design science
0.7543426538	nlms
0.7543404375	failure detector
0.7543395008	online discussions
0.7543348487	optimization method
0.7543279891	syntactic
0.7543248188	sons
0.7543222405	imaginary
0.7543217598	working set
0.7543196088	absorbed
0.7543177588	ras
0.7543075783	impedance
0.7543048192	gdp
0.7542770635	hippocampal
0.7542738127	expected profit
0.7542729498	black
0.7542592569	taxonomy
0.7542561631	mouth
0.7542475898	metabolic
0.7542454926	degree sequence
0.7542343042	fusion
0.7542225414	ciphers
0.7542141221	command
0.7542063993	rural areas
0.7542008655	cryptographic
0.7541935702	high quality
0.7541872866	discharge
0.7541656379	fly
0.7541630323	research institutes
0.7541316004	obligation
0.7541262478	poi
0.7541199827	autosar
0.7541101263	health
0.7540871573	iscas
0.7540808369	test chip
0.7540747000	provisioning
0.7540745621	latent
0.7540555765	crop
0.7540394150	mkl
0.7540344109	nm
0.7540147352	port
0.7540112614	itemset mining
0.7539827149	mrs
0.7539678811	action potential
0.7539671924	strategy proof
0.7539649951	invited
0.7539587598	tsk
0.7539550979	bug
0.7539306810	lot
0.7539169351	gb
0.7539127461	evolution equations
0.7539075651	implementing
0.7539043074	quarter
0.7538856932	storage capacity
0.7538827865	mobility patterns
0.7538778620	libraries
0.7538625934	basing
0.7538604199	reducible
0.7538462175	benefiting
0.7538432853	gap
0.7538347180	protective
0.7538328130	reluctance
0.7538045132	worm
0.7538008404	xslt
0.7538008404	hdd
0.7537896620	spiht
0.7537868894	grant
0.7537839924	divisible
0.7537835159	programming gp
0.7537475279	minimum size
0.7537443635	art
0.7537407692	vcs
0.7537401098	mutation
0.7537362523	kernel
0.7537357784	genome sequence
0.7537340486	comparing
0.7537312488	labour
0.7537168534	hivaids
0.7537099128	routing problem
0.7536987817	aster
0.7536867779	discretize
0.7536848652	prosodic
0.7536685056	abstraction
0.7536681938	dai
0.7536665773	differentiated
0.7536646496	hamiltonian systems
0.7536448064	amplifier
0.7536253824	electricity
0.7536231391	spatial layout
0.7536221937	diodes
0.7536083918	gender
0.7535856431	optical properties
0.7535853443	rns
0.7535669374	user actions
0.7535545589	confusion network
0.7535469907	stakeholder
0.7535447232	leadership
0.7535389809	connected graph
0.7535290230	sds
0.7535237011	portable
0.7535077828	north
0.7535065157	resource allocation problem
0.7534996282	performance metrics
0.7534958227	recommendation
0.7534747489	local government
0.7534690052	simplified
0.7534377776	definition language
0.7534290430	compress
0.7534165772	me
0.7534042391	biased
0.7534029642	frgc
0.7533997069	pre processing
0.7533867289	maturity model
0.7533841033	edca
0.7533647728	voting
0.7533543813	perceptual
0.7533474333	controllable
0.7533170294	image processing techniques
0.7533143776	perpendicular
0.7533103310	wire
0.7533073245	production rules
0.7533024234	image decomposition
0.7532952611	grid
0.7532921680	aversion
0.7532873314	ikonos
0.7532777386	triangular
0.7532644150	tbm
0.7532614002	sustainability
0.7532566549	data entry
0.7532545755	yield improvement
0.7532483945	object relational
0.7532445186	workflows
0.7532360202	fds
0.7532091588	tsv
0.7532041945	multiuser multiple input multiple output
0.7532031881	computing infrastructures
0.7531922584	lna
0.7531912845	gnp
0.7531684658	css
0.7531680956	semantically related
0.7531606941	vns
0.7531486502	colour
0.7531455965	vg
0.7531422527	lattices
0.7531008896	succession
0.7530899069	empirical studies
0.7530797782	vga
0.7530667063	tls
0.7530652162	ncl
0.7530608489	client
0.7530542046	spoken
0.7530465042	localization accuracy
0.7530349063	dataflow
0.7530268399	th
0.7530214453	bowel
0.7530146504	united
0.7530008404	aac
0.7530008404	mpp
0.7529882307	tier
0.7529839251	dfe
0.7529839251	nbti
0.7529822774	encryption
0.7529470473	categorization
0.7529442587	cultural factors
0.7529232684	prespecified
0.7529199937	finite sets
0.7529134366	ocl
0.7529125008	global synchronization
0.7529070971	unmodeled
0.7528999099	video watermarking
0.7528855573	semantic grid
0.7528842534	thd
0.7528830505	go
0.7528799543	reconstruction algorithm
0.7528797555	atpg
0.7528759443	adhesion
0.7528585447	dfa
0.7528351457	leak
0.7528321881	internet protocol
0.7528258908	marketing
0.7528249827	qm
0.7528211716	topological space
0.7528206976	truck
0.7527985202	endmember
0.7527921447	lt
0.7527920701	rid
0.7527900936	depletion
0.7527800509	dependency
0.7527754871	silicon
0.7527596228	ieee
0.7527408551	tissue deformation
0.7527392066	dsss
0.7527260742	bibliometric analysis
0.7527128862	deviates
0.7527070103	jpeg images
0.7526949484	corba
0.7526856670	music
0.7526581611	shape context
0.7526498632	cochannel
0.7526420612	inductor
0.7526400114	local area
0.7526273071	gd
0.7526240932	single input
0.7526045500	tb
0.7526015140	perceived benefits
0.7526005578	gait
0.7525998338	lf
0.7525943992	aadl
0.7525738262	backbone network
0.7525652162	lst
0.7525611739	ic design
0.7525161738	protection
0.7525110881	logging
0.7524877587	hour
0.7524871694	closure
0.7524789907	sls
0.7524751993	fdg
0.7524751993	mopso
0.7524747598	recently
0.7524746334	aaa
0.7524636173	aggregation
0.7524472486	optimization algorithms
0.7524407344	release
0.7524376078	doe
0.7524375961	3gpp long term evolution
0.7524226959	utility theory
0.7523841482	arms
0.7523742203	pricing scheme
0.7523641598	cmu
0.7523639518	least squares ls
0.7523589975	component model
0.7523542423	ask
0.7523461390	interception
0.7523379635	tour
0.7523173204	autoregressive models
0.7523142126	research projects
0.7523137621	capacity gains
0.7523132048	moea
0.7523085327	der
0.7522644150	xcs
0.7522525102	mlr
0.7522517653	quantification
0.7522383910	rainfall
0.7522326774	medical domain
0.7522271188	corner
0.7522221620	spike
0.7522178704	prevalence
0.7522123070	reference image
0.7522011836	blas
0.7521851109	transmission efficiency
0.7521796905	attributed
0.7521774829	rdfs
0.7521745108	psychological
0.7521614080	midi
0.7521587843	tds
0.7521335607	epc
0.7521168073	high coverage
0.7520994364	hierarchical
0.7520922069	actor network
0.7520896057	disks
0.7520857958	band gap
0.7520786012	household
0.7520737116	alu
0.7520644954	virtual patients
0.7520550772	noc based
0.7520463315	communicating
0.7520422724	cpa
0.7520176624	wan
0.7520085789	diesel
0.7519881490	penetrating
0.7519825554	antibodies
0.7519470479	left inferior
0.7519438906	k nearest neighbors
0.7519271882	rests
0.7519227870	interview
0.7519199533	pts
0.7519149392	quality requirements
0.7519092645	transceiver design
0.7519041608	therapy
0.7518980908	sv
0.7518782138	relational database systems
0.7518666782	time varying delays
0.7518653373	inverted
0.7518644110	geospatial information
0.7518576375	lai
0.7518559259	casual
0.7518425482	nanotube
0.7518343042	brain
0.7518228808	gop
0.7518155471	project scheduling problem
0.7518134970	illness
0.7518107361	hit rates
0.7518057720	usn
0.7518008404	vad
0.7517994321	signature based
0.7517916735	secure
0.7517820101	adaptable
0.7517673468	closeness
0.7517663020	facial
0.7517570605	rsa
0.7517483852	kf
0.7517471439	inter domain routing
0.7517285167	irregular
0.7517181782	anova
0.7517026912	moral
0.7516972939	orl
0.7516958684	awareness
0.7516920618	canonical correlation
0.7516867729	cope
0.7516838376	80211b
0.7516778246	sre
0.7516584130	filtered
0.7516514844	modulated
0.7516321699	byproduct
0.7516278108	graph mining
0.7516169663	architectural
0.7516055439	boost
0.7516014038	gradient
0.7515968878	molecular
0.7515946642	combinational
0.7515721380	sss
0.7515703247	conduction
0.7515652162	gsd
0.7515487516	fms
0.7515359929	input single output miso
0.7515243631	query interface
0.7515208438	omp
0.7514914475	scan
0.7514857594	dominance
0.7514825390	channel sensing
0.7514818063	multiplexed
0.7514495844	continuation
0.7514364309	moderating
0.7514340310	track
0.7514195383	deformable
0.7514193907	standardization
0.7514110783	instant
0.7514104543	osa
0.7514094837	calibration
0.7514088517	similarity queries
0.7513846973	john wiley sons ltdrnrnthis
0.7513808933	pss
0.7513741732	binary classifiers
0.7513691362	enzyme
0.7513593402	picture
0.7513490593	hj
0.7513254510	mra
0.7513208906	backward
0.7513146063	hybrid
0.7513127476	pollutants
0.7512974365	sparse
0.7512889179	rhythms
0.7512670278	referring
0.7512630529	od
0.7512628099	personal
0.7512380438	velocity estimation
0.7512353673	lq
0.7512343381	aml
0.7512123180	sme
0.7512057829	flight
0.7511986650	pmd
0.7511948125	object oriented languages
0.7511877251	pass
0.7511875036	announcements
0.7511856799	space time codes
0.7511813622	human action
0.7511720771	investor
0.7511696789	j comput phys
0.7511650976	determinism
0.7511555808	optical
0.7511377454	hierarchical classification
0.7511372102	casia
0.7511371003	control messages
0.7511289200	term extraction
0.7511242366	spatial statistics
0.7510903547	generation partnership project 3gpp
0.7510880888	soi
0.7510732177	collective operations
0.7510651927	insufficiency
0.7510644150	ssta
0.7510638277	comparisons
0.7510443741	electrode
0.7510416236	service times
0.7510301564	contextual
0.7510292529	thinking
0.7510287873	schooling
0.7510286040	engagement
0.7510072795	nfa
0.7509983337	point source
0.7509840529	hostile
0.7509753231	completion
0.7509741929	variational
0.7509741717	ep
0.7509541278	log data
0.7509509794	preceded
0.7509372575	establishing
0.7509268881	industrial
0.7509234352	mfs
0.7509167537	cns
0.7508727084	compute intensive
0.7508589170	modulation schemes
0.7508273833	till
0.7508194740	neuron
0.7508070915	tissue specific
0.7507866450	control strategies
0.7507834109	harsh environments
0.7507818196	telephony
0.7507741016	pencil
0.7507722834	type safety
0.7507687320	body movements
0.7507652486	optimization framework
0.7507631289	cc
0.7507553965	call admission control
0.7507529030	recovery
0.7507490209	pu
0.7507440858	john wiley sons
0.7507387307	communication technologies
0.7507380096	microarray studies
0.7507343381	psl
0.7507303506	temporal resolution
0.7507276071	lighting
0.7507226543	thresholding
0.7507045956	bus
0.7506989825	teach
0.7506919154	sb
0.7506914173	unintended
0.7506836181	fsm
0.7506827766	social relationship
0.7506796905	hull
0.7506659722	lifestyle
0.7506570472	silicon area
0.7506537461	educational purposes
0.7506531206	reversal
0.7506474105	conditioning
0.7506329189	pressure distribution
0.7506316767	cable
0.7506107592	meta
0.7505967528	ops
0.7505849293	risk taking
0.7505621981	internet topology
0.7505345082	etl
0.7505319784	sh
0.7505311233	spectrum analysis
0.7505145730	fes
0.7505074430	electre
0.7504986252	odf
0.7504955166	hf
0.7504752041	readiness
0.7504568480	elm
0.7504509981	multicarrier systems
0.7504447854	queue
0.7504339818	post
0.7504224251	rnn
0.7504050852	questionnaire
0.7503808747	principled
0.7503785276	neural network classifier
0.7503571306	destructive
0.7503479485	defect
0.7503475657	library
0.7503423646	lut based
0.7503393875	parameter settings
0.7503351427	outstanding
0.7503267702	spacecraft
0.7503186007	connect
0.7503177645	dac
0.7503142165	dsl
0.7503080531	multi objective evolutionary
0.7502962879	edit
0.7502920017	adsl
0.7502920017	jml
0.7502810817	smos
0.7502810817	crn
0.7502802150	navier
0.7502799214	suite
0.7502798649	programming interface
0.7502791328	dictated
0.7502774604	monte
0.7502688362	mips
0.7502648464	bgp
0.7502637707	programme
0.7502628083	constrained
0.7502616372	acl
0.7502451130	fluid simulation
0.7502222475	extraction
0.7502220784	personalize
0.7502175070	bpr
0.7502159322	edge weighted
0.7502027793	olap
0.7502015104	ncs
0.7501946936	personally
0.7501943123	crossing
0.7501918980	adequacy
0.7501906636	ex
0.7501806680	ccs
0.7501679734	collaborative environments
0.7501549411	runtime
0.7501305522	merging
0.7501265432	noc architectures
0.7501218805	capitalize
0.7501113149	lifecycle management
0.7501088328	irc
0.7500866300	location problem
0.7500805634	collaborative
0.7500805274	proficiency
0.7500752407	multiplayer
0.7500721409	cutoff
0.7500689590	die area
0.7500645638	seam
0.7500570185	konnen
0.7500553237	withstand
0.7500485278	lv
0.7500273083	rts
0.7500063821	diffusion
0.7500046650	indexing
0.7499901046	ontology
0.7499898534	supervisor
0.7499859990	enterprise application
0.7499667486	ul
0.7499588113	lis
0.7499586684	dwdm
0.7499545003	hw
0.7499535734	oscillators
0.7499525073	maximization
0.7499478747	jxta
0.7499040978	hardware platform
0.7498762478	pdm
0.7498762087	feret
0.7498690162	standardize
0.7498661365	potential energy
0.7498610407	statistical methods
0.7498537388	micro scale
0.7498128096	aka
0.7498090047	nf
0.7497915603	turbo
0.7497818926	trust based
0.7497806676	stimulation
0.7497766021	custom
0.7497747560	earliest deadline
0.7497738163	minimum
0.7497727654	cb
0.7497665693	smo
0.7497494746	semantic interpretation
0.7497449745	complying
0.7497383287	high efficiency
0.7497357563	tlb
0.7497356418	qos based
0.7497225734	cae
0.7497223105	educational content
0.7497175070	qbf
0.7497147011	priority
0.7497123180	ode
0.7497056105	class dependent
0.7496848073	access control mechanism
0.7496836181	lsi
0.7496835201	egc
0.7496808501	intermediate representation
0.7496756316	quadrature amplitude
0.7496705478	traditions
0.7496254907	credit
0.7496232891	ip network
0.7496102510	aca
0.7496102510	gvf
0.7496088328	lssvm
0.7496088328	hts
0.7496086285	imagery
0.7496016755	tps
0.7495988531	ifdma
0.7495919926	beamforming weights
0.7495852742	token
0.7495784431	cts
0.7495782224	free graphs
0.7495780763	topological
0.7495709017	relaying scheme
0.7495516110	sps
0.7495386530	exacerbated
0.7495306711	replacing
0.7495257588	civilian
0.7495195287	vertical
0.7495052474	artifact
0.7495003511	eai
0.7494978025	header
0.7494942005	observers
0.7494920478	colonies
0.7494877845	axiomatization
0.7494479390	power flow
0.7494451055	fq
0.7494367493	csmaca
0.7494152572	multi path fading
0.7494099494	azimuth
0.7494086254	21st century
0.7494061114	allocating
0.7494013768	turbines
0.7493911527	encryption standard aes
0.7493871234	animal
0.7493791227	root
0.7493607196	structural equation modelling
0.7493535691	travelling
0.7493437809	orbit
0.7493366270	cmp
0.7493094705	doubt
0.7492857563	htm
0.7492857563	snn
0.7492857563	amf
0.7492796701	defense mechanisms
0.7492586168	hga
0.7492288225	administrator
0.7492225734	fmea
0.7492123180	mfcc
0.7492094616	care
0.7492062925	timing requirements
0.7491981800	synthesizer
0.7491976498	ppc
0.7491769502	streaming service
0.7491739462	eoq
0.7491505152	memory capacity
0.7491476498	mtf
0.7491428634	br
0.7491401556	alarm
0.7491298286	mobility pattern
0.7491297718	raid
0.7491280650	isomorphism
0.7491227282	migration
0.7491192749	ndvi
0.7491174602	verb
0.7491162015	fcs
0.7491149059	print
0.7491110355	fast
0.7490988531	wsc
0.7490861622	metals
0.7490838125	dfp
0.7490449253	breed
0.7490384394	capacity constraints
0.7490229422	programmable
0.7490180488	surge
0.7490169515	csma
0.7490160498	tactile
0.7490113456	role based
0.7489987140	atm
0.7489985205	scanning
0.7489956822	msd
0.7489904765	pollution
0.7489872795	cml
0.7489872795	epa
0.7489762188	back propagation bp
0.7489672244	morphologically
0.7489669685	firstly
0.7489599102	swimming
0.7489425802	multi core platforms
0.7489317883	pem
0.7489183878	refactoring
0.7489088826	failure rates
0.7488956018	maturity
0.7488902176	radio interfaces
0.7488861773	med
0.7488678503	focs
0.7488664435	logistic regression models
0.7488663759	orthogonal
0.7488551714	envisat
0.7488440515	id
0.7488416945	ide
0.7488406128	srtm
0.7488171901	simultaneous
0.7488049398	isar
0.7488049398	mof
0.7487929145	cmm
0.7487846137	aqueous
0.7487803060	refinement
0.7487792009	voltage reference
0.7487771740	mixer
0.7487749026	eog
0.7487675070	clp
0.7487557924	predictive modeling
0.7487539911	tertiary
0.7487468339	signature
0.7487433341	avoidance
0.7487404655	studying
0.7487387255	bbob
0.7487383920	measuring
0.7487328842	oct
0.7487124931	tms
0.7487123180	gnss
0.7487106556	arp
0.7487102067	dfs
0.7487011331	combinatorial explosion
0.7486995398	content protection
0.7486857480	crosstalk noise
0.7486844266	rao bound crb
0.7486827027	leo
0.7486779800	ray
0.7486762480	neuro
0.7486647288	nouns
0.7486478464	nir
0.7486472756	eda
0.7486407265	registration
0.7486384146	landscapes
0.7486310817	cdd
0.7486301632	predicate
0.7486261948	polynomial space
0.7486236162	resilience
0.7486228107	loyalty
0.7486053678	arteries
0.7486048862	om
0.7485946474	dns
0.7485911415	layer perceptron
0.7485739475	isoiec
0.7485733477	stp
0.7485733477	pvc
0.7485733477	lma
0.7485680687	breast
0.7485510909	sg
0.7485373188	discrete fourier
0.7485335855	administrative domains
0.7485323531	constellations
0.7485305530	cplex
0.7485254819	rigorous proof
0.7485245602	multipath propagation
0.7485221444	sdc
0.7485169515	bpmn
0.7485055287	ipl
0.7485048138	reference genome
0.7485000294	spatial cognition
0.7484888672	direct search
0.7484835201	aer
0.7484785657	range free
0.7484653786	bdd based
0.7484525673	nb
0.7484373410	small signal
0.7484362304	bd
0.7484304891	conductance
0.7484197331	website design
0.7484174222	wnn
0.7484016817	modulation
0.7483944313	relational
0.7483896882	gsm
0.7483874170	vo
0.7483819900	fluid
0.7483747974	gss
0.7483704438	linguistically
0.7483450906	cfs
0.7483290671	subgroup
0.7483088828	vehicular network
0.7483071663	optimal control problem
0.7482944862	integrating
0.7482919565	culture
0.7482896587	early
0.7482836181	wcdma
0.7482708438	dbscan
0.7482572692	heart
0.7482520902	bdds
0.7482515063	collaborative working
0.7482500670	nuca
0.7482495973	steering
0.7482428879	ivus
0.7482252189	sns
0.7482245448	bifurcation
0.7482056964	control signals
0.7481900218	eventual
0.7481706427	expenditure
0.7481636425	crs
0.7481625665	gn
0.7481604552	muscle
0.7481470105	switching noise
0.7481337190	drm
0.7481300303	genome sequences
0.7481236798	gravity
0.7481145820	nfr
0.7481088328	hnn
0.7481034611	human subjects
0.7480919177	supervisory
0.7480669911	v blast
0.7480659107	wz
0.7480659107	glm
0.7480617377	books
0.7480366375	power allocation schemes
0.7480334579	cmac
0.7480254084	vdd
0.7480230874	chromosome
0.7480085871	mails
0.7480072919	population density
0.7480048987	232
0.7479886995	daily activities
0.7479880649	containers
0.7479865861	hash
0.7479675070	aqm
0.7479672030	spatio
0.7479586684	ftir
0.7479467925	memory bandwidth
0.7479392271	fls
0.7479392217	idss
0.7479267573	multi instance
0.7479250188	file access
0.7479227407	ue
0.7479156840	parameterized
0.7479136628	airs
0.7479038195	instantiation
0.7478890629	similarity matrix
0.7478777204	microarray data analysis
0.7478586943	feature tracking
0.7478502029	channel state
0.7478487354	web users
0.7478358436	hspa
0.7478358436	jnd
0.7478090037	cap
0.7478056923	gsp
0.7478007374	constant power
0.7477836181	mosfet
0.7477776571	controlling
0.7477770009	forefront
0.7477770009	invasively
0.7477754415	pipelined architecture
0.7477686834	gs
0.7477628124	sink
0.7477591737	cda
0.7477532748	myriad
0.7477396921	lens
0.7477368433	plaintext
0.7477359286	pdp
0.7477319417	lof
0.7477227561	blood volume
0.7477185631	asymptotic distribution
0.7477056754	localized
0.7476979509	graph transformations
0.7476840500	rigid registration
0.7476836181	bdi
0.7476717492	robust
0.7476633787	edi
0.7476341737	ipa
0.7476341737	pce
0.7476341737	bmc
0.7476341737	plr
0.7476182312	grading
0.7476113085	sender
0.7476102510	vblast
0.7476102510	wcag
0.7476088328	cve
0.7476029704	translation
0.7475979127	fap
0.7475979127	tsc
0.7475922724	tss
0.7475822837	und die
0.7475778804	wl
0.7475732172	ips
0.7475493309	rfi
0.7475169515	tcpip
0.7475163630	union
0.7475158887	ito
0.7475158492	graphical
0.7475130446	cms
0.7474951799	plot
0.7474921954	ftc
0.7474873359	perceived quality
0.7474833989	dimensional manifold
0.7474686255	pnc
0.7474637624	root mean squared
0.7474593763	information asymmetry
0.7474523817	expectation
0.7474493501	plenty
0.7474329399	labor intensive
0.7474289290	guard
0.7474283288	colored
0.7474260187	morphology
0.7474248962	differentiation
0.7474195027	transmission errors
0.7473994272	semistructured data
0.7473938921	cca
0.7473645150	alignment
0.7473300307	mts
0.7473252234	uppaal
0.7473194648	ram
0.7473129786	image interpolation
0.7473091737	qkd
0.7473078830	scalable
0.7472999974	current control
0.7472986252	mtl
0.7472805179	aiming
0.7472757749	cluster computing
0.7472718914	object identification
0.7472699584	uddi
0.7472691179	srl
0.7472514744	ideally suited
0.7472311088	dcs
0.7472310817	abm
0.7472258119	prevailing
0.7472144044	ale
0.7472091418	protection mechanism
0.7471915831	syntax
0.7471870883	dvr
0.7471830162	mobility traces
0.7471749442	transmission rates
0.7471632944	magnetic
0.7471583929	uncertain parameters
0.7471566631	fer
0.7471448081	signed
0.7471373545	unequal
0.7471293318	neural network controller
0.7471266022	umts network
0.7471240330	prp
0.7471173825	socp
0.7471173825	cnr
0.7471169515	udp
0.7471136324	document representation
0.7470960500	mls
0.7470928333	partial
0.7470923191	cim
0.7470656482	metaphor
0.7470656409	illustrative
0.7470558829	mass transfer
0.7470479127	psc
0.7470477196	accordance
0.7470399938	coloured
0.7470336295	parity
0.7470291457	ctc
0.7470129424	matter
0.7470126603	ase
0.7470126603	dcc
0.7469951022	hydrogen
0.7469848955	kkt
0.7469818937	authenticity
0.7469818164	virtual
0.7469799398	vehicle tracking
0.7469783333	spa
0.7469755142	information flows
0.7469742375	aspect oriented modeling
0.7469733131	vp
0.7469605088	miss
0.7469604293	back propagation neural network bpnn
0.7469493278	qpsk
0.7469298289	gf
0.7469214227	solvability
0.7469180894	similarity scores
0.7469125510	kms
0.7469060817	prc
0.7469028293	snp
0.7468987824	ngn
0.7468855190	novice
0.7468853422	authorities
0.7468797200	multi step
0.7468652162	lbm
0.7468478472	sbs
0.7468461274	bitwise
0.7468394249	password based
0.7468331999	gcm
0.7468304944	home
0.7468279137	joint estimation
0.7468089498	gabor feature
0.7468087709	iss
0.7468085894	linearity
0.7468025616	trellis
0.7467944930	end point
0.7467911383	resident
0.7467770009	exchanger
0.7467687087	radial
0.7467675070	vcr
0.7467589290	finite domain
0.7467532728	usability study
0.7467519467	markets
0.7467499609	epipolar
0.7467426307	cost sharing
0.7467396762	fh
0.7467201037	self organizing
0.7467124344	serial
0.7466928430	hc
0.7466909561	acc
0.7466683496	album
0.7466671177	ctr
0.7466669795	heavily loaded
0.7466655444	knowledge based
0.7466628119	camera views
0.7466604113	investing
0.7466602272	blood oxygenation
0.7466487163	generally applicable
0.7466458213	tan
0.7466419175	security solutions
0.7466413246	pspice
0.7466410264	interactive
0.7466382776	nsf
0.7466314339	acceptability
0.7466209358	wafer
0.7466128502	variate
0.7466066009	tuning
0.7465959200	map building
0.7465896428	sod
0.7465879851	polynomial time approximation scheme
0.7465860100	noise shaping
0.7465735537	critical factors
0.7465670298	groundwater
0.7465588344	rps
0.7465573478	dorsal
0.7465529089	wifi networks
0.7465365838	action spaces
0.7465332659	mission
0.7465329530	backup
0.7465310803	concurrency
0.7465279517	decision tree classifier
0.7465226804	validation
0.7465221444	mvdr
0.7465221444	agc
0.7465221444	stt
0.7465149446	linear combination
0.7465130017	memory consumption
0.7465089009	mmog
0.7465048192	mcm
0.7464982881	legacy code
0.7464982808	finish
0.7464974067	cho
0.7464722215	transport
0.7464678715	fixing
0.7464629491	attenuation
0.7464591662	lpp
0.7464552922	cbm
0.7464534419	signaling cost
0.7464477483	nic
0.7464477483	odp
0.7464473803	branch
0.7464470241	pb
0.7464467391	reliable transmission
0.7464464231	review
0.7464366460	extensive
0.7464350730	dec
0.7464345204	career
0.7464313287	pkc
0.7464280908	manual segmentation
0.7464252848	o
0.7464120786	direction of arrival doa estimation
0.7463899621	exptime
0.7463714859	thp
0.7463533416	lower dimensional
0.7463506453	ssh
0.7463466593	active vibration
0.7463450906	tei
0.7463437703	fuzzy neural
0.7463368555	blurred image
0.7463245531	vos
0.7463168958	cnf
0.7463148751	authentication
0.7463063344	moga
0.7463032554	manufacturing
0.7463018768	hydrological
0.7462904339	evolutionary
0.7462833744	sas
0.7462776865	table
0.7462769163	wiley
0.7462760970	odd
0.7462669429	generating function
0.7462500670	eis
0.7462474090	lsm
0.7462474090	cdc
0.7462466796	svg
0.7462310817	mcc
0.7462062969	competition
0.7461979958	bm
0.7461909056	conceal
0.7461848323	classification problems
0.7461826809	improved
0.7461807789	pfs
0.7461613829	bottleneck link
0.7461423395	cbs
0.7461337602	empirical study
0.7461326231	automatic
0.7461216213	delivery latency
0.7461211110	bond
0.7461199467	gflops
0.7461153385	attack graphs
0.7460981867	lattice
0.7460852356	chemical structures
0.7460641094	duct
0.7460550897	psf
0.7460469192	multiplier
0.7460336295	hiding
0.7460268816	synthetically
0.7460122206	ad
0.7460112244	mrp
0.7460083612	ams
0.7460053421	nmpc
0.7460018835	xcp
0.7460005978	network throughput
0.7460004510	edp
0.7459993270	hpm
0.7459942711	sdss
0.7459821266	jade
0.7459808387	intrusion
0.7459739017	clustered
0.7459670017	cavlc
0.7459624277	cpr
0.7459487689	unaffected
0.7459265451	codebook design
0.7459231185	dsmc
0.7459193040	grain size
0.7458622795	dsrc
0.7458520514	labeled training data
0.7458386976	dram
0.7458358370	adjacency
0.7458355513	ii
0.7458333728	pes
0.7458311083	hl7
0.7458295472	plagiarism
0.7458295077	hop routing
0.7458173395	scr
0.7458059642	massively
0.7458057201	ks
0.7457981611	service description
0.7457928879	rsc
0.7457928879	mppt
0.7457863190	literacy
0.7457636383	revisits
0.7457530328	quo
0.7457431202	lags
0.7457383088	svdd
0.7457331421	rb
0.7457221262	generic
0.7457154810	organising
0.7457123990	bw
0.7457082417	pathology
0.7456982659	manually labeled
0.7456821152	selection method
0.7456818572	target identification
0.7456804150	llc
0.7456770168	dom
0.7456497045	objective optimization
0.7456394150	dpso
0.7456314843	lc
0.7456299346	aqua
0.7456287930	vch
0.7456150062	pwa
0.7456150062	mpm
0.7456023644	pascal
0.7455996174	multi stream
0.7455961582	simulation based
0.7455810817	dnf
0.7455807423	cvd
0.7455762781	pl
0.7455751993	mllr
0.7455712569	direct sequence code division
0.7455676587	network connectivity
0.7455506561	low false positive rate
0.7455489013	limb
0.7455441032	income
0.7455139696	distributed denial of service ddos
0.7455074456	simd
0.7454761559	augmented
0.7454714213	human interactions
0.7454668265	crane
0.7454591347	estate
0.7454477483	mso
0.7454456281	dlr
0.7454442913	supplier
0.7454434324	lp decoding
0.7454418660	nfs
0.7454231185	bcc
0.7454137229	ansys
0.7454026397	cfg
0.7453970794	fuzzy preference relations
0.7453792055	stereo image
0.7453727027	np
0.7453655154	ba
0.7453637648	signal propagation
0.7453590062	cbc
0.7453438983	attributable
0.7453427119	clinic
0.7453407277	qs
0.7453317685	irs
0.7453306368	analyzing
0.7453256175	microwave access wimax
0.7453091737	pzt
0.7453091737	pml
0.7453034203	coloring
0.7453023711	stochastic
0.7452948166	hog
0.7452812081	gprs
0.7452669972	su
0.7452328471	dbs
0.7452295708	encrypt
0.7452204976	trust
0.7452063258	peak detection
0.7452044211	dielectric properties
0.7451920034	sfm
0.7451770270	ae
0.7451628035	iqa
0.7451628035	rmp
0.7451487924	network congestion
0.7451333395	injuries
0.7451243753	jm
0.7451173825	agv
0.7451162144	minimizer
0.7451059508	correctness proof
0.7451021612	encrypted
0.7451005141	evaluation methods
0.7450996804	ack
0.7450883170	sws
0.7450854236	bcis
0.7450837964	wsdl
0.7450751961	gaas
0.7450725732	pole
0.7450399812	unicore
0.7450322068	analog to digital converter adc
0.7450297724	ast
0.7450194707	msg
0.7450169515	tdd
0.7450144150	ugc
0.7450065246	apd
0.7449942711	mim
0.7449942711	idm
0.7449941534	isd
0.7449938921	crf
0.7449865499	npp
0.7449789227	pdb
0.7449711666	frobenius
0.7449694414	rp
0.7449588974	algebraically
0.7449546913	spe
0.7449522431	morphological analysis
0.7449517765	wt
0.7449366667	grade
0.7449335963	exact computation
0.7449311799	fusion method
0.7449264569	reading
0.7449161534	integer program
0.7449062874	lcr
0.7449060817	msr
0.7449047205	supervised
0.7449023957	integrity
0.7448977483	lsh
0.7448914195	eliminating
0.7448876335	ipso
0.7448873585	specially
0.7448833721	interpolation
0.7448811242	fuzzy
0.7448774366	shading
0.7448720246	degree distributions
0.7448702944	fdm
0.7448612348	eukaryotic
0.7448534456	sis
0.7448508839	switched
0.7448489462	atr
0.7448467254	detecting
0.7448359786	allele
0.7448282539	dst
0.7448279424	biology
0.7448271614	active
0.7448231865	cancer
0.7448194775	micaz
0.7448015356	mutation analysis
0.7447972485	mh
0.7447890277	prf
0.7447866267	ifft
0.7447813620	abs
0.7447704025	polygon
0.7447625917	destination nodes
0.7447530328	microsoftinternetexplorer4
0.7447359172	multiplayer online
0.7447250232	clir
0.7447083751	white
0.7446847813	wm
0.7446840062	cpi
0.7446832257	wf
0.7446734507	iris images
0.7446700826	mpls
0.7446676999	vsi
0.7446580951	msms
0.7446532533	misbehaving nodes
0.7446477362	nlg
0.7446472756	isp
0.7446425070	bip
0.7446425070	qrd
0.7446392799	real life
0.7446373962	aod
0.7446370761	dps
0.7446336684	lsc
0.7446280328	karush
0.7446259754	cscl
0.7446140634	fmm
0.7446041395	photometric
0.7446005407	dead
0.7445929780	stall
0.7445923424	annotation
0.7445839769	osn
0.7445780841	dynamical
0.7445677721	denominator
0.7445529798	rx
0.7445393107	asics
0.7445319761	adaptive
0.7445279012	probability measures
0.7445245835	block coding stbc
0.7445229816	dsms
0.7445222475	multimedia
0.7445108461	pareto optimal set
0.7445102840	stap
0.7445098553	generalized
0.7444989329	daa
0.7444965908	hole
0.7444894581	separating
0.7444764198	captcha
0.7444693413	plm
0.7444675885	disk
0.7444672105	wss
0.7444585625	evolved
0.7444556195	mmc
0.7444508955	lots
0.7444477287	phase contrast
0.7444462061	pda
0.7444203379	decode and forward df
0.7444196994	raphson
0.7444183218	pitch
0.7444091333	conception
0.7444079377	security risk
0.7443973209	enhanced
0.7443957240	lyapunov functional
0.7443953920	chromatic
0.7443897958	ptsd
0.7443889586	catastrophic
0.7443781100	ft
0.7443693413	vbm
0.7443675422	fo
0.7443654775	write
0.7443598937	media content
0.7443595812	scc
0.7443585708	ils
0.7443436993	pruning
0.7443364730	instantaneous
0.7443364302	rkhs
0.7443190982	ban
0.7443164454	bag
0.7443140257	vsc
0.7443121304	rays
0.7443094547	adaptive neural
0.7443069204	cooperation
0.7443003934	direct path
0.7442967460	htn
0.7442809277	emitting
0.7442763569	conductivity
0.7442705799	multiple paths
0.7442669042	fol
0.7442532689	amplify and forward relaying
0.7442504631	rssi
0.7442419243	swarm
0.7442343995	res
0.7442250232	pga
0.7442250232	dmc
0.7442222475	integrated
0.7442188357	differential
0.7442111217	dialogue systems
0.7442108689	arcs
0.7441957067	auf
0.7441905115	bml
0.7441835492	global climate
0.7441830722	solving
0.7441811083	lagrangean
0.7441782379	deletions
0.7441742966	multihop networks
0.7441625105	csd
0.7441554588	ves
0.7441549109	rip
0.7441502944	psp
0.7441502842	contextual factors
0.7441488034	death
0.7441481992	gauge
0.7441474881	garbage
0.7441410101	subgame
0.7441410101	palsy
0.7441219608	respiratory
0.7441205354	instrument
0.7441191584	regulatory mechanisms
0.7441168660	ccc
0.7441078784	independent components
0.7441060250	drive
0.7441059352	src
0.7441031691	recognise
0.7441007402	positional
0.7440964572	edf
0.7440856429	ria
0.7440755002	voice
0.7440583980	marketing strategy
0.7440535070	sudoku
0.7440511201	qd
0.7440455641	prospect
0.7440095812	spr
0.7440091277	traits
0.7440064934	matlabsimulink
0.7440026923	pse
0.7439893289	beam
0.7439831032	societies
0.7439829601	anforderungen
0.7439768761	consolidation
0.7439620480	sos
0.7439521092	spi
0.7439464944	cmt
0.7439356174	compensation
0.7439299045	cdss
0.7439241116	thaliana
0.7439237167	bench
0.7439056295	temporal spatial
0.7438962529	differing
0.7438932748	tumor
0.7438840660	c3
0.7438739043	wave
0.7438701403	abc
0.7438533210	metropolis
0.7438524952	induction
0.7438513692	symplectic
0.7438491981	hms
0.7438434462	human behaviour
0.7438413429	microscopic images
0.7438399995	drop
0.7438348830	swe
0.7438215570	cop
0.7438191769	hardi
0.7438157759	crystal
0.7438115634	february
0.7437999426	pas
0.7437914471	parallel
0.7437873311	precedence
0.7437799073	geographical information
0.7437755830	fixed length
0.7437634621	rubber
0.7437614748	decay
0.7437459344	stl
0.7437383648	segregation
0.7437312679	loc
0.7437264414	rma
0.7437264414	msp
0.7437191769	qvt
0.7437123971	restructuring
0.7436940609	lithography
0.7436781237	dcdc
0.7436615951	cds
0.7436558192	power ratio
0.7436521016	transportation networks
0.7436322910	reverberant
0.7436244755	cbf
0.7436236080	euclidian
0.7436150062	dcop
0.7435987567	inverse gaussian
0.7435934832	cooperative game theory
0.7435840578	sep
0.7435276970	removal
0.7435170914	soas
0.7435120532	tc
0.7435010771	multimedia communication
0.7434999497	carlo
0.7434986922	detectability
0.7434902921	lps
0.7434778628	investigations
0.7434716387	rh
0.7434691769	pcp
0.7434682197	hh
0.7434672244	entrance
0.7434431375	disparity
0.7434360728	quantitative
0.7434249925	gmres
0.7434127237	clustering
0.7434059707	fresh
0.7434015749	ch
0.7433959952	boinc
0.7433929175	disabled
0.7433897958	mce
0.7433863904	si
0.7433856451	gg
0.7433791568	fb
0.7433790506	bookmarking
0.7433691537	isomorphic
0.7433532929	pseudo inverse
0.7433488315	contributor
0.7433281478	cir
0.7433092403	tsmc
0.7432869341	singular
0.7432778159	software development processes
0.7432750617	pms
0.7432746648	myspace
0.7432736520	multi processor systems
0.7432622056	privacy
0.7432560354	mcs
0.7432480072	opnet
0.7432369610	cpn
0.7432338563	nbi
0.7432191122	suburban
0.7432114099	relative merits
0.7432109119	asic
0.7432075014	acquisition
0.7432021916	econ
0.7431958474	privacy management
0.7431660981	native
0.7431632458	genre
0.7431631141	consumer behavior
0.7431471455	sac
0.7431471455	dtd
0.7431396512	computational complexities
0.7431381082	frr
0.7431236080	alon
0.7431227483	lll
0.7431227306	recent
0.7431180242	survival
0.7431173454	projected
0.7431085275	positive integers
0.7431074145	ssp
0.7431074145	lcc
0.7431072754	cipher
0.7430993168	drainage
0.7430917635	steepest
0.7430884137	nr
0.7430868107	cusum
0.7430729462	integral pi
0.7430661693	mar
0.7430647188	quadrant
0.7430637809	mx
0.7430447480	cvt
0.7430447480	egfr
0.7430326530	dtc
0.7430326530	dta
0.7430259040	phonological
0.7430130446	wiley periodicals inc j graph theory
0.7430109119	rtl
0.7430078646	dtn
0.7429999555	perfect channel
0.7429982038	drp
0.7429975604	vss
0.7429959547	teacher
0.7429893589	esn
0.7429866932	acf
0.7429845797	t dmb
0.7429766974	hosted
0.7429525102	bep
0.7429442632	rr
0.7429378629	message complexity
0.7429356843	inclusive
0.7429316683	ols
0.7429283719	line balancing
0.7429115315	dbmss
0.7429112130	imposing
0.7429050475	bbo
0.7428992767	employing
0.7428855578	ltd
0.7428853909	weno
0.7428607427	ol
0.7428603584	elsevier
0.7428532005	cache memory
0.7428475294	transient
0.7428385312	antenna elements
0.7428316097	parafac
0.7428191769	ccr
0.7428191769	pcnn
0.7428191769	pcc
0.7428164166	fishers
0.7428147385	foreground
0.7428103728	polsar
0.7428071686	lh
0.7428064503	cfl
0.7428056281	dpsk
0.7428056281	nci
0.7428051566	machining
0.7427988144	reliance
0.7427877449	hap
0.7427576584	termination
0.7427477733	interval
0.7427459274	pdc
0.7427401018	prs
0.7427399375	ricean
0.7427370075	asymptotic
0.7427191769	esb
0.7427191769	gsc
0.7427148850	density function
0.7427123576	high integrity
0.7427110817	noisy data
0.7427079910	ff
0.7426964899	visualization
0.7426893950	convex set
0.7426662071	snort
0.7426514021	relating
0.7426480542	discovery
0.7426477886	pat
0.7426259057	tas
0.7426215106	simulation framework
0.7426167342	academic
0.7426137826	mpi applications
0.7426073017	cl
0.7426042470	daily lives
0.7426023977	security risks
0.7425852870	kbs
0.7425744527	ot
0.7425733515	streaming
0.7425561612	formal language
0.7425531882	form factor
0.7425418027	dimensional euclidean space
0.7425362371	hurst
0.7425321738	mfc
0.7424775857	program summary
0.7424691769	dlp
0.7424600122	torus
0.7424576616	logarithm
0.7424557925	meris
0.7424557925	imf
0.7424557925	sbc
0.7424526746	ecoc
0.7424498229	longitudinal
0.7424462061	dbms
0.7424462061	ocr
0.7424441985	abstractrnrnwe
0.7424385620	evaluation methodology
0.7424372640	additive
0.7424300373	taiwanese
0.7424287399	lobe
0.7424270120	gmms
0.7424119758	impairments
0.7424086476	mmorpgs
0.7424008548	maintaining
0.7423858053	anchor nodes
0.7423806368	automated
0.7423724268	reformulation
0.7423637163	fam
0.7423355550	ptp
0.7423308106	fokker
0.7423263889	elicitation
0.7423259561	fsl
0.7423244400	dod
0.7423095577	fsa
0.7423071938	leakage
0.7423048849	gilbert
0.7422959361	ecs
0.7422719895	stf
0.7422479172	fidelity
0.7422456144	ida
0.7422307459	brand
0.7422287300	altera
0.7422245456	fim
0.7422243247	mpsocs
0.7422191769	hvac
0.7421909626	identity
0.7421681595	maximum sum
0.7421637799	pure
0.7421627591	cv
0.7421623153	sticky
0.7421535617	sw
0.7421477377	bl
0.7421390021	organizational
0.7421300374	verification
0.7421273832	cws
0.7421197102	synchronization scheme
0.7421169471	simplex algorithm
0.7420903381	formation
0.7420814061	ers
0.7420800190	digital
0.7420585421	distributed applications
0.7420578475	small and medium sized enterprises
0.7420576791	afc
0.7420525996	exact
0.7420490358	languages dsls
0.7420430595	transmitter csit
0.7420420941	remote
0.7420394971	human computer interface
0.7420333375	orm
0.7420040862	ddm
0.7419992771	register
0.7419972690	flowshop
0.7419869614	elliptic
0.7419816095	magnetic resonance mr images
0.7419797853	tag
0.7419778911	ecm
0.7419718150	va
0.7419718150	bb
0.7419677272	web20
0.7419671495	dissemination
0.7419557925	icm
0.7419376131	synthesis
0.7419350915	biasing
0.7419325501	internet scale
0.7419306111	fgs
0.7419198811	online
0.7419090511	ll
0.7419078831	hpc applications
0.7418998115	gi
0.7418997985	dfm
0.7418997305	research group
0.7418972320	arrays
0.7418943060	speech separation
0.7418914437	strain
0.7418861267	cartesian product
0.7418691042	tcg
0.7418591002	poc
0.7418543315	hoc
0.7418472759	disambiguate
0.7418472756	wpan
0.7418458303	shamir
0.7418303789	aurora
0.7418199539	wu
0.7418104397	repetition
0.7417986411	meg
0.7417791524	php
0.7417728792	parallel machine
0.7417712894	web engineering
0.7417712271	wolfe
0.7417681166	vbs
0.7417545237	srs
0.7417537390	earth movers
0.7417511831	fed
0.7417487551	vias
0.7417462235	access technologies
0.7417392678	lsf
0.7417335730	pir
0.7417335730	bler
0.7417333136	genetic algorithm based
0.7417316086	neighborhood
0.7417223823	sufficiency
0.7417125976	priori
0.7416917103	parallel architectures
0.7416868149	spreading
0.7416795419	dts
0.7416766916	bv
0.7416524900	reader
0.7416356338	sige
0.7416326466	proving
0.7416209614	digit
0.7416200469	oc
0.7416120590	inference
0.7416098610	fall
0.7416083757	data distribution
0.7416082913	shadowing
0.7416058334	sellers
0.7415708744	pg
0.7415382312	walsh
0.7415347221	preliminary
0.7415317068	cellular
0.7415277691	abe
0.7415226753	bem
0.7415180066	mss
0.7415130999	r3
0.7415005502	feature detection
0.7414947500	rnwe
0.7414941769	idma
0.7414941769	mih
0.7414875173	noisy speech
0.7414813577	relevance
0.7414770892	msl
0.7414756097	ordinal
0.7414669724	unbounded
0.7414572107	gmdh
0.7414570118	engine
0.7414445104	edge map
0.7414411933	global stability
0.7414335037	l band
0.7414250273	patch
0.7414217002	ibs
0.7414216103	zn
0.7414203310	test data
0.7414198938	participates
0.7414115315	cs1
0.7414079784	ifs
0.7413941769	pdr
0.7413941769	sdi
0.7413831202	lasting
0.7413822151	area overhead
0.7413795422	bpo
0.7413795422	wpt
0.7413636679	service science
0.7413525102	mram
0.7413461241	settlement
0.7413458303	stieltjes
0.7413433415	bleu
0.7413323960	decoders
0.7413309660	oriented architecture soa
0.7413297404	dividing
0.7413251911	pdn
0.7413250002	fea
0.7413217207	instance level
0.7413048849	shannons
0.7412964194	mcp
0.7412872232	distributed
0.7412670665	classification algorithm
0.7412566668	lustre
0.7412498589	bwa
0.7412498589	stft
0.7412492472	beitrag
0.7412427331	visual sensor networks
0.7412409107	qca
0.7412217070	mace
0.7412178333	traditional
0.7412116519	unconstrained
0.7411949597	fnn
0.7411927139	cfos
0.7411917145	comp
0.7411883791	cdns
0.7411765664	tfs
0.7411738532	assembly
0.7411630856	heterogeneous multicore
0.7411456712	aspectj
0.7411343459	mamdani
0.7411333341	answering
0.7411278394	prior information
0.7411204299	data transfers
0.7411200469	ind
0.7411021319	linear models
0.7410872359	differential evolution de
0.7410796695	std
0.7410735506	elections
0.7410636120	approximation spaces
0.7410617107	v2v
0.7410527577	ig
0.7410423213	smc
0.7410332077	ess
0.7410227178	golay
0.7410123318	automotive industry
0.7409856724	malaysian
0.7409672244	relieve
0.7409624969	mtc
0.7409588542	end points
0.7409577042	fabricate
0.7409389614	ceo
0.7409334010	outage
0.7409251868	hol
0.7409237407	investigation
0.7409231617	intelligent transport
0.7409229209	electronic structure
0.7409138481	collective behavior
0.7409086022	focussed
0.7409063906	puf
0.7409028577	beginning
0.7409020250	abstractrnrnin
0.7408970148	kohonen
0.7408942597	sp
0.7408937165	independent sets
0.7408929764	sclerosis
0.7408860609	psi
0.7408845137	operating frequency
0.7408838815	error reduction
0.7408788337	vt
0.7408754371	recursive functions
0.7408648905	fourier analysis
0.7408594850	intention
0.7408473694	enterprises
0.7408363124	pla
0.7408275102	rtp
0.7408275102	nirs
0.7408275102	pcf
0.7408132214	subcellular
0.7407887591	information disclosure
0.7407880465	responding
0.7407865170	gene expression analysis
0.7407781132	bes
0.7407666514	gating
0.7407581864	schwarz
0.7407433570	genotype
0.7407370085	pie
0.7407354921	canny
0.7407289111	rams
0.7407170722	oo
0.7407125290	mobility
0.7407117073	subtraction
0.7407116519	introduction
0.7407068677	tu
0.7406624150	cvs
0.7406615681	sn
0.7406562362	scopus
0.7406485403	numa
0.7406327409	dba
0.7406267784	bandwidth efficient
0.7406242165	strives
0.7406188749	ec
0.7406041310	highly structured
0.7405906539	beamforming vector
0.7405904156	p3
0.7405882306	integer linear program
0.7405873915	economic
0.7405842928	mipv6
0.7405831922	bcd
0.7405831922	rdo
0.7405789614	wip
0.7405789614	oai
0.7405747203	fortunately
0.7405496055	integro
0.7405432480	interference free
0.7405425443	drawing
0.7405298763	mps
0.7405228647	est
0.7405164719	noisy environment
0.7405079694	mdps
0.7404969057	nmos
0.7404901529	upcoming
0.7404851878	human capital
0.7404815777	hv
0.7404790150	h2
0.7404657487	ao
0.7404643423	ook
0.7404643423	tpb
0.7404640092	registers
0.7404190002	relay network
0.7404176845	xss
0.7404176845	aec
0.7404176845	glcm
0.7404176845	sdd
0.7404176845	ivc
0.7404170827	bn
0.7404150842	dbn
0.7404138121	trs
0.7404122947	vtol
0.7404116988	nc
0.7404055525	j2ee
0.7404038992	pervasive environment
0.7403857150	ranging
0.7403749641	randomized algorithms
0.7403682158	outlier
0.7403615376	copd
0.7403604830	miller
0.7403577989	basis set
0.7403500433	sf
0.7403463145	cooperative control
0.7403386079	gls
0.7403262403	edas
0.7403235874	objective functions
0.7403125988	finally
0.7402867921	dls
0.7402843687	availability
0.7402800315	spelling
0.7402754562	microarray analysis
0.7402619680	miss rate
0.7402502407	pod
0.7402482443	macs
0.7402388754	wise
0.7402291258	fmt
0.7402291258	gpp
0.7402291258	upc
0.7402236050	adf
0.7402204932	wetland
0.7402196481	dags
0.7402096174	starting point
0.7402026216	channel interference
0.7401877523	paired
0.7401816255	luts
0.7401754147	semantically
0.7401741966	pcs
0.7401689690	single objective
0.7401643908	mass
0.7401638972	uniform random
0.7401514222	nasas
0.7401502375	affinity
0.7401392360	design optimization
0.7401286326	cdp
0.7401286326	bwt
0.7401275613	coulomb
0.7401248666	emo
0.7401219854	single step
0.7401212591	transmit power constraint
0.7401128032	covariance
0.7401049378	ransac
0.7400966078	cls
0.7400850574	least squares support vector machines
0.7400704233	block fading
0.7400587048	usability issues
0.7400511889	stabilization
0.7400506080	adaptive sampling
0.7400238733	unstructured
0.7400182212	traveling
0.7399806281	oltp
0.7399806281	lcp
0.7399763487	invariance
0.7399712524	sor
0.7399521027	multi hop routing
0.7399487689	reconcile
0.7399468398	twitter
0.7399314616	tightness
0.7399283843	wpans
0.7399280976	century
0.7399233121	ftl
0.7399115315	mfccs
0.7399078298	hand shape
0.7399044184	vhdl
0.7399010288	csp
0.7398976591	conductive
0.7398972107	ssc
0.7398972107	udg
0.7398972107	hpso
0.7398965657	reckoning
0.7398953748	splitting
0.7398941769	etx
0.7398770877	mir
0.7398671113	subgraph
0.7398658465	climbing
0.7398654647	nonlinear discrete time systems
0.7398600291	rnthe
0.7398553139	vd
0.7398540548	pfc
0.7398438508	esp
0.7398425257	toeplitz
0.7398144246	kansei
0.7398117767	eos
0.7398108509	upnp
0.7398099330	kinematics
0.7398078642	nl
0.7397865029	mcda
0.7397718462	rev
0.7397586949	ultrasound image
0.7397483544	sentence
0.7397281647	cos
0.7397271117	second order sliding mode
0.7397210874	hi
0.7397186572	delivering
0.7397160827	ss
0.7397058841	partial evaluation
0.7397052551	decode and forward relaying
0.7397024876	rn
0.7396958871	substituted
0.7396938376	hls
0.7396934528	dae
0.7396934528	hmac
0.7396771078	dynamic
0.7396763602	fptas
0.7396659265	multiplication
0.7396523223	empower
0.7396509428	prisoners
0.7396388991	npv
0.7396230574	ships
0.7396210408	erm
0.7396127121	pps
0.7396126912	dad
0.7396031691	agrees
0.7396001495	fires
0.7395937167	adams
0.7395629483	vickrey
0.7395618619	lr
0.7395428261	ta
0.7395381864	bm25
0.7395247640	lifetime
0.7395185741	eb
0.7394999748	hl
0.7394999748	qim
0.7394968855	bg
0.7394957453	ehrs
0.7394918661	sm
0.7394895465	multiple views
0.7394812253	acceptance
0.7394782301	b2c
0.7394665493	ascent
0.7394601245	paradigm shift
0.7394545877	ltv
0.7394545877	vle
0.7394545877	pcg
0.7394545877	irt
0.7394300373	wilson
0.7394230089	rnin
0.7394067440	supplementary
0.7394029509	formulating
0.7394007628	though
0.7393983258	poincare
0.7393676886	vcsel
0.7393676536	surgeon
0.7393585196	renewable
0.7393482972	cu
0.7393475859	ldr
0.7393469340	scrum
0.7393383811	mosaic
0.7393333082	spmd
0.7393320459	implicit
0.7393192595	wp
0.7393036549	renyi
0.7392953541	sturm
0.7392933453	marc
0.7392922949	mlps
0.7392896282	epi
0.7392893956	shaping
0.7392848355	legal requirements
0.7392822500	te
0.7392805179	posterior
0.7392789940	edm
0.7392789940	cgra
0.7392789940	alm
0.7392751091	index structures
0.7392699807	uniformly distributed
0.7392594760	biometric systems
0.7392500089	biomedical applications
0.7392482372	definable
0.7392462537	dbt
0.7392382773	reflection
0.7392289680	bandwidth sharing
0.7392278093	ccp
0.7392187623	experiments
0.7392084319	qp
0.7392036097	sal
0.7391869355	unternehmen
0.7391705230	bfs
0.7391640439	expression profiling
0.7391561352	sdma
0.7391553951	online services
0.7391529281	manhattan
0.7391514222	h264svc
0.7391486949	area efficient
0.7391469988	modern
0.7391400582	web search results
0.7391269665	data forwarding
0.7391260096	mkp
0.7391247295	geographic
0.7391156858	contact force
0.7391143986	neighbor
0.7391023187	invariant
0.7390921470	var
0.7390894569	signer
0.7390800064	dq
0.7390559092	hirsch
0.7390427777	mes
0.7390351375	jr
0.7390240621	parallel disk
0.7390238160	local alignment
0.7390206994	minimally
0.7390074496	lcms
0.7390023170	requirements specifications
0.7390021095	gene expression patterns
0.7390014726	enriched
0.7389986247	ipsec
0.7389937835	mil
0.7389883591	erdos
0.7389760002	moeas
0.7389734669	marte
0.7389722585	tract
0.7389648802	deciding
0.7389588894	ng
0.7389423209	core components
0.7389404074	diffserv
0.7389229875	ases
0.7389197102	g2
0.7389166731	dds
0.7389109183	fast convergence
0.7389095636	taguchi
0.7389079784	sdm
0.7389078608	pcb
0.7388938759	aid
0.7388820928	sparse matrix vector
0.7388743732	clustering approach
0.7388449885	gl
0.7388388173	vibration
0.7388371966	prolog
0.7388327656	thesis
0.7388294502	ibe
0.7388258526	viral
0.7388254355	attend
0.7388178002	dems
0.7388162371	j2me
0.7388046967	belfast
0.7388046967	bruijn
0.7388029991	jensen
0.7387917887	srp
0.7387874360	relay links
0.7387811806	encoding scheme
0.7387771621	multivariate normal
0.7387755147	tcr
0.7387623653	delivery delay
0.7387571317	fg
0.7387531560	birth
0.7387476538	chang
0.7387365069	tla
0.7387365069	lrf
0.7387278093	mrt
0.7387108661	seu
0.7386948964	bc
0.7386934787	yao
0.7386882057	maximum
0.7386880018	schmidt
0.7386676090	twelve
0.7386534599	fc
0.7386339458	fpt
0.7386338853	retention
0.7386317533	violations
0.7386184179	cnfet
0.7386105064	pmos
0.7386034187	software maintainability
0.7385832215	rdbms
0.7385800126	insertion
0.7385759194	citation
0.7385754913	advanced
0.7385705022	combining
0.7385693757	mmn
0.7385634509	apf
0.7385634509	grn
0.7385623649	thread
0.7385600021	fhss
0.7385598340	bns
0.7385597201	philosophy
0.7385594991	sta
0.7385565183	signal separation
0.7385560325	cog
0.7385394175	weakest
0.7385359497	duty
0.7385257441	reproducibility
0.7385191088	pal
0.7385179753	neural network model
0.7385096965	gaba
0.7385080483	software metrics
0.7385047830	poorly understood
0.7384982708	hammerstein
0.7384816351	labview
0.7384809435	media access control
0.7384749665	minimizing
0.7384618930	ifg
0.7384557426	gathering
0.7384536571	pioneer
0.7384486775	engineer
0.7384378938	isabelle
0.7384378938	b3g
0.7384172593	background model
0.7384123714	fifo
0.7384074097	af relay
0.7384060882	sms
0.7384045918	cba
0.7384045918	bldc
0.7384045918	sawsdl
0.7384045918	rfe
0.7384019611	test inputs
0.7383754683	ontologies
0.7383715062	data visualization
0.7383706130	digital music
0.7383670856	modulator
0.7383632125	celebrated
0.7383393012	qpso
0.7383322569	chinas
0.7383263726	delayed
0.7383164016	gfp
0.7383124453	ei
0.7383092619	ner
0.7383091912	processor core
0.7383039011	landau
0.7382992447	requirements analysis
0.7382982343	language identification
0.7382938287	roll
0.7382903933	determinants
0.7382877738	predictive models
0.7382735385	classification algorithms
0.7382697991	small molecules
0.7382694274	multicellular
0.7382692926	kr
0.7382575812	parameter sets
0.7382521783	inject
0.7382472404	omnet
0.7382376756	smv
0.7382365069	sut
0.7382365069	mav
0.7382365069	txop
0.7382343557	repeatability
0.7382317833	optim
0.7382298990	perfor
0.7381956869	gr
0.7381935099	wavelet
0.7381930452	chan
0.7381912162	mixed
0.7381794001	ologn
0.7381735484	formalization
0.7381610911	npc
0.7381477485	datalog
0.7381195093	peer
0.7381135505	mobile sensor network
0.7381086246	omn
0.7381065806	mrfs
0.7381029471	object boundaries
0.7380926878	cbv
0.7380770842	analogous
0.7380760137	rvc
0.7380760137	fmo
0.7380760137	stb
0.7380760137	ipo
0.7380712797	hs
0.7380705965	cosine transform
0.7380610408	gwas
0.7380412522	multi camera
0.7380376620	misbehaving
0.7380315624	connection
0.7380087369	backbone
0.7379696658	plls
0.7379696658	mg1
0.7379558254	randomization
0.7379543634	untrusted
0.7379401350	mobile media
0.7379357212	residual
0.7379330980	curse
0.7379309600	fingerprinting
0.7379285895	maximum stable
0.7379244448	mns
0.7379231411	cache
0.7379228932	interdisciplinary
0.7379122322	tag based
0.7379074494	rate maximization
0.7379065806	netflix
0.7379034452	delay compensation
0.7378925033	isomap
0.7378857967	representation theorem
0.7378818158	mosfets
0.7378806205	april
0.7378746569	oscillation frequency
0.7378711522	systematic
0.7378686650	isa
0.7378645308	hungarian
0.7378622848	hyperspectral
0.7378374630	equip
0.7378286919	hev
0.7378286919	esr
0.7378286919	ccf
0.7378286919	pmc
0.7378241104	vehicle
0.7378168276	parallelization
0.7378094784	corneal
0.7378076758	architectural support
0.7377995052	tp
0.7377943330	dhts
0.7377919924	h1
0.7377898320	hop
0.7377890210	visible
0.7377814470	qtl
0.7377792215	natural language text
0.7377772553	lts
0.7377762816	googles
0.7377533231	s1
0.7377493781	sheets
0.7377475788	agenda
0.7377449515	agent based models
0.7377210728	negative bias temperature
0.7377173120	violation
0.7376977401	subsequently
0.7376945900	gaussian distributions
0.7376715544	congruence
0.7376678002	thz
0.7376606071	triz
0.7376588420	identifying
0.7376560882	wb
0.7376549625	diagnostic tool
0.7376462951	ppg
0.7376426143	postgresql
0.7376405869	rta
0.7376372344	merkle
0.7376263050	repositories
0.7376253909	planning problems
0.7376175744	vf
0.7376145856	learning algorithm
0.7376111293	body area
0.7376095696	tropos
0.7375892896	recommender
0.7375818928	bernstein
0.7375753143	rabin
0.7375700370	pomdps
0.7375698629	bluetooth
0.7375684220	rng
0.7375684220	olpc
0.7375684220	sdg
0.7375684220	wran
0.7375684220	hcd
0.7375684220	moead
0.7375669414	spatial database
0.7375661163	specifically
0.7375430809	low quality
0.7375421742	evolving
0.7375299747	ides
0.7375181014	free software
0.7375001139	sct
0.7374961514	clustering methods
0.7374897514	uw
0.7374872920	stories
0.7374818050	mms
0.7374797507	x3d
0.7374714673	uas
0.7374663636	encoder
0.7374351272	gm
0.7374339461	wa
0.7374197317	differentially
0.7374181325	lovasz
0.7374089616	cnns
0.7374017862	pbs
0.7373835073	pkm
0.7373794792	spit
0.7373756643	evaluating
0.7373708126	simulation study
0.7373604035	hr
0.7373468523	ate
0.7373395129	multi core systems
0.7373393971	highly skewed
0.7373361364	dg
0.7373291296	pro posed
0.7373234005	slim
0.7373225142	abnormal
0.7373084143	garch model
0.7373002082	lsd
0.7373002082	fahp
0.7372845622	tdma based
0.7372821771	vlan
0.7372815629	emotion classification
0.7372701896	interconnect
0.7372545378	captchas
0.7372496268	guis
0.7372465828	onlogn
0.7372417223	learning resources
0.7372298990	linearities
0.7372295880	network design
0.7372243484	c2
0.7372170831	multi objective genetic
0.7372160867	godel
0.7372069361	based access control
0.7372067205	potential fields
0.7372066491	stepping
0.7372021639	aerodynamic
0.7371922004	sem
0.7371788829	srr
0.7371788829	ucs
0.7371668900	k4
0.7371586890	narx
0.7371579905	pade
0.7371414916	humanoid
0.7371244047	harmful interference
0.7371238422	toc
0.7371231025	mesh
0.7371144871	smalltalk
0.7371060355	soms
0.7370976074	attending
0.7370772344	kdv
0.7370769508	lns
0.7370486044	ranking
0.7370458001	hsm
0.7370458001	pct
0.7370345976	governed
0.7370226833	n gram
0.7370213143	criticality
0.7370145955	entropy rate
0.7370113602	methodological
0.7370109844	quality of experience qoe
0.7370108869	bangla
0.7370071403	mbr
0.7369929028	driving behavior
0.7369925221	pii
0.7369925221	mcl
0.7369847556	affymetrix
0.7369847556	bhattacharyya
0.7369810325	vn
0.7369771546	kt
0.7369762453	cg
0.7369682931	sofm
0.7369654339	assessment
0.7369644574	insensitive
0.7369381275	examination
0.7369365169	absorption
0.7369313899	smf
0.7369313899	iam
0.7369195744	w1
0.7369083032	biological processes
0.7369028739	fitting
0.7368910991	fma
0.7368884761	sba
0.7368845948	ema
0.7368747628	service requests
0.7368742394	tsallis
0.7368692229	knowledge building
0.7368686493	wer
0.7368681442	crystals
0.7368612290	scoring
0.7368479038	isabellehol
0.7368428077	memory cell
0.7368412940	reconfigurable devices
0.7368393647	bbs
0.7368236085	sys tem
0.7368235073	slp
0.7368188698	contour
0.7368155003	duality theory
0.7368111872	block code
0.7368002082	ctmc
0.7367997503	gan
0.7367929993	c2c
0.7367813292	rv
0.7367716999	optimal
0.7367681325	kanade
0.7367646014	analog to digital converters
0.7367601082	foss
0.7367471433	hindi
0.7367425648	roughly speaking
0.7367425644	auditory
0.7367418187	taiwans
0.7367352713	rk
0.7367221771	plp
0.7367094431	pol
0.7367074732	semantic metadata
0.7367032349	gt
0.7366997458	ed
0.7366988929	denial of service dos
0.7366950011	spatial scalability
0.7366895150	ajax
0.7366865565	hds
0.7366847172	eps
0.7366762089	acceleration
0.7366609679	tsvs
0.7366609679	uis
0.7366593141	movement patterns
0.7366534310	multi word
0.7366341550	measurement errors
0.7366281756	reference trajectory
0.7366264963	yu
0.7366256471	let
0.7366256034	er
0.7366250479	bed
0.7365747216	clip
0.7365710252	wheeled
0.7365684665	type safe
0.7365470606	v2
0.7365431451	diagram
0.7365359147	soar
0.7365279310	imitate
0.7365209502	node capture
0.7365175650	multiple channels
0.7365053661	virtual object
0.7365022187	semi global
0.7364946429	expressive
0.7364939848	governing equations
0.7364875007	smse
0.7364875007	tmi
0.7364875007	msw
0.7364860569	solder
0.7364853218	incapable
0.7364781529	predominant
0.7364746688	channel gains
0.7364683585	kp
0.7364631343	essence
0.7364612523	simulations
0.7364603272	multi item
0.7364560692	asl
0.7364497632	dde
0.7364497632	rca
0.7364459492	package
0.7364427255	fs
0.7364401502	sum
0.7364340501	framenet
0.7364230144	verbal
0.7364006385	power supply voltage
0.7363962816	elman
0.7363782666	tri
0.7363763050	curvature
0.7363723870	process calculus
0.7363717485	plc
0.7363640221	youngs
0.7363626262	sirs
0.7363467036	reo
0.7363408884	computationally tractable
0.7363374698	central
0.7363352604	bf
0.7363307854	huang
0.7363227306	fss
0.7363006894	frequent closed
0.7362942144	dre
0.7362881470	ensuring
0.7362844183	ocs
0.7362808341	nearest
0.7362680781	breaches
0.7362660777	dependency analysis
0.7362616605	bicmos
0.7362499485	agent platform
0.7362461305	mechanics
0.7362405312	numerous
0.7362366146	wfms
0.7362176999	temperature field
0.7362018212	low level features
0.7361915113	attraction
0.7361901841	v1
0.7361843237	finfet
0.7361799794	sti
0.7361762599	iw
0.7361762599	mmi
0.7361724305	labeling
0.7361717146	sports
0.7361671569	verilog
0.7361655030	provers
0.7361601388	programming model
0.7361581378	lett
0.7361537109	ef
0.7361510156	cpoe
0.7361466173	sig
0.7361458588	machinery
0.7361441444	quickbird
0.7361246228	concurrent systems
0.7361223410	flexray
0.7361211290	ftp
0.7361083119	semantic concepts
0.7361040705	weighted finite state
0.7360872947	hmi
0.7360753170	pt
0.7360731222	hybrid approach
0.7360517486	sequential
0.7360431477	passenger
0.7360359268	handling
0.7360183366	tre
0.7360142970	iga
0.7359986018	moodle
0.7359979773	ontology development
0.7359814988	third
0.7359643769	qos requirement
0.7359594867	vms
0.7359581034	wom
0.7359559277	polynomial size
0.7359378920	duffing
0.7359330113	elaborates
0.7359267874	gh
0.7359154339	understanding
0.7359062003	cvar
0.7359045152	december
0.7358995089	p300
0.7358877532	bpp
0.7358867656	desired trajectory
0.7358835911	dbns
0.7358816079	spie
0.7358584854	pearsons
0.7358496586	triple modular
0.7358462856	isis
0.7358398607	small area
0.7358270631	team
0.7358136807	dh
0.7358029991	intels
0.7357832629	pf
0.7357674006	uris
0.7357674006	brdfs
0.7357594525	cod
0.7357593853	array
0.7357586341	psam
0.7357555779	emotional states
0.7357482847	spectral features
0.7357329295	body sensor network
0.7357276474	evaluation method
0.7357232962	restful
0.7356946527	hot
0.7356843071	sfc
0.7356760492	srams
0.7356714254	semi
0.7356433746	bbb
0.7356397150	ltp
0.7356308554	bit level
0.7356305904	operating conditions
0.7356284376	fluctuation
0.7356134746	photo realistic
0.7356130629	aware
0.7356114693	alc
0.7356039605	dic
0.7355974123	tes
0.7355798624	correlated
0.7355752453	color
0.7355643739	pmsm
0.7355643739	dpcm
0.7355643739	hjb
0.7355494161	ci
0.7355138955	poisoning
0.7354986018	dofs
0.7354907403	safety
0.7354858001	dstc
0.7354824019	ischemic
0.7354768619	vts
0.7354729318	information leakage
0.7354716116	boneh
0.7354699225	efficient
0.7354610825	bose
0.7354595726	reeb
0.7354557163	agreement
0.7354516201	process modeling
0.7354334395	abstract
0.7354247284	matching score
0.7354200732	forums
0.7354176267	conceptions
0.7354153405	synchronized
0.7353982045	nv
0.7353950091	backward compatibility
0.7353928136	selecting
0.7353886809	compression function
0.7353812445	dfig
0.7353812445	ipmc
0.7353717671	lm
0.7353652627	integer programming model
0.7353516254	dry
0.7353510874	viola
0.7353440686	overview
0.7353436550	spectrum management
0.7353434798	scheduling strategies
0.7353419871	arcgis
0.7353350199	collecting
0.7353220814	sponsored
0.7353195805	wsmo
0.7353155243	ofdma networks
0.7353128678	afterward
0.7353065432	tutte
0.7352970490	oe
0.7352964699	turan
0.7352950717	o2
0.7352918187	razumikhin
0.7352918187	richardson
0.7352918187	vpns
0.7352907302	universality
0.7352758889	addressable
0.7352665834	largely unexplored
0.7352339390	messages exchanged
0.7352330722	superposition
0.7352269764	c1
0.7352169244	wimedia
0.7352149294	automatic classification
0.7352136384	trust relationship
0.7352133729	qualitative research
0.7352109531	wigner
0.7351922809	adi
0.7351657852	provable
0.7351631566	cognitive
0.7351525667	fom
0.7351321233	tui
0.7351321233	wms
0.7351321233	mdm
0.7351296308	numerical solution
0.7351282946	shop
0.7351282531	cam
0.7351262640	mcds
0.7351262640	cbe
0.7351262640	amt
0.7351179323	technical challenges
0.7351039171	ada
0.7351030135	task migration
0.7351006977	flexible
0.7350715254	basal
0.7350480458	gbits
0.7350342898	regression
0.7350323008	fpga devices
0.7350309630	terrain
0.7350265594	spp
0.7350265594	wg
0.7350241651	earliest deadline first
0.7350235888	enterprise networks
0.7349931813	qw
0.7349931813	vho
0.7349874181	employee
0.7349813269	program transformation
0.7349811891	diagrams
0.7349736441	spiking neural
0.7349470346	ppis
0.7349420979	inspection
0.7349331587	fn
0.7349323228	rungekutta
0.7349227478	mathematical models
0.7349164796	ipv4
0.7349132765	state estimator
0.7348781616	supporting
0.7348774351	sheer
0.7348696423	manifestation
0.7348616049	ffr
0.7348497632	gem
0.7348458567	tr
0.7348396290	sensor network applications
0.7348344821	cardiovascular
0.7348319313	bms
0.7348271634	rbs
0.7348228404	forwarding
0.7348138406	windup
0.7348080058	mvs
0.7348056437	ssi
0.7347972641	coupled
0.7347843898	e mail
0.7347664387	incremental learning algorithm
0.7347627057	interconnects
0.7347544681	ti
0.7347539435	zp
0.7347327784	nes
0.7347293540	oasis
0.7347292372	lost packets
0.7347222918	sure
0.7347163330	y
0.7347121452	stiffness matrix
0.7347099578	hk
0.7347073129	video recordings
0.7346942741	kinematic
0.7346863324	leibniz
0.7346745640	synthetic
0.7346648904	open
0.7346359169	critical path delay
0.7346309767	scaling dvfs
0.7346180719	osgi
0.7345969430	overloading
0.7345894146	responsibility
0.7345875523	regularity
0.7345794347	jaccard
0.7345765594	gml
0.7345751126	sell
0.7345660887	corruption
0.7345630605	large area
0.7345594991	rg
0.7345544235	conceptually
0.7345526797	ccm
0.7345519756	appliances
0.7345327820	gate
0.7345260256	centred
0.7345095726	rnai
0.7345059546	spartan
0.7345047035	f0
0.7344909859	title
0.7344835033	fuzzy rough set
0.7344627725	multiple output mimo
0.7344551578	byzantine
0.7344521744	peripheral
0.7344369502	spectrum opportunities
0.7344280103	pstn
0.7344280103	cpld
0.7344280103	cstr
0.7344261248	cq
0.7344251594	arbitrary switching
0.7344231399	object oriented design
0.7344219110	ax
0.7344172814	hdp
0.7344172814	pip
0.7344108502	motion analysis
0.7343997044	tossim
0.7343997044	grnn
0.7343997044	lca
0.7343965606	netflow
0.7343826241	preserving
0.7343758829	content adaptation
0.7343714549	teragrid
0.7343669810	fine tuned
0.7343640221	grassmannian
0.7343624771	fortran
0.7343497870	cpp
0.7343458726	voltage gain
0.7343441444	hankel
0.7343441444	microsofts
0.7343436272	item
0.7343413104	lcm
0.7343413000	braille
0.7343307854	tinyos
0.7343305851	conservative
0.7343228878	heat
0.7343181209	gate array
0.7343118931	dmus
0.7343084335	applying
0.7343035585	logical
0.7342907503	disclosure
0.7342875318	bcs
0.7342772340	perturbation
0.7342686559	momentum
0.7342680379	smp
0.7342525901	bcg
0.7342504478	projections
0.7342484547	arq scheme
0.7342357088	structured
0.7342324588	mop
0.7342257074	strongly correlated
0.7342185306	fully integrated
0.7342119378	plsi
0.7342108258	num
0.7341956178	boards
0.7341955556	rtk
0.7341955556	acp
0.7341579379	rabbit
0.7341518904	checking
0.7341168986	brainstem
0.7341014198	pmipv6
0.7340927689	disease diagnosis
0.7340859986	plate
0.7340780351	attach
0.7340770437	hbt
0.7340746949	resonance
0.7340733422	wind
0.7340677892	mht
0.7340677892	aosd
0.7340677892	csir
0.7340616231	body parts
0.7340609322	index
0.7340563677	diagnosis
0.7340562801	stroop
0.7340493451	mmogs
0.7340408725	transmission control protocol
0.7340339719	frechet
0.7340185590	gos
0.7340069453	qi
0.7340063828	discount
0.7339950498	routing and wavelength assignment
0.7339927861	underwater sensor
0.7339881648	age
0.7339812522	learning rate
0.7339787658	immersion
0.7339426013	arf
0.7339275312	application developer
0.7339127014	tolerant
0.7338988184	qe
0.7338966042	ill
0.7338936979	analytical
0.7338861597	contact point
0.7338789090	monotone
0.7338779769	organizing
0.7338770356	aloud
0.7338618758	compensatory
0.7338604572	statistical models
0.7338579441	vector machine svm
0.7338574119	tsa
0.7338352855	afs
0.7338327078	qn
0.7338267091	backend
0.7338233750	blurred images
0.7338176934	modulo theories
0.7338075322	crank
0.7337874242	p1
0.7337739868	80216j
0.7337736612	log2
0.7337648239	rfids
0.7337630751	image authentication
0.7337531868	compression
0.7337447017	illuminate
0.7337418084	wiretap
0.7337347248	fledged
0.7337156045	perl
0.7337144943	policy driven
0.7336999322	ssds
0.7336993714	source channel coding
0.7336882010	counteract
0.7336851332	trees
0.7336750203	prm
0.7336482169	ans
0.7336468015	heterogeneous
0.7336444958	discrepancies
0.7336356274	classification scheme
0.7336252552	cga
0.7336112208	noisy images
0.7336099534	spes
0.7336070252	subscribe
0.7336035996	mathematical formulation
0.7336002851	village
0.7335904574	assistance
0.7335716609	encrypted data
0.7335687805	user interface gui
0.7335676440	impacted
0.7335563846	csl
0.7335563764	unknown parameters
0.7335540923	sfn
0.7335392980	modeling approach
0.7335318341	authentication mechanism
0.7335187242	tl
0.7335004439	dynamic logic
0.7334965522	error estimation
0.7334932163	broadband
0.7334903158	network monitoring
0.7334782681	outdoor environment
0.7334768603	partitioning
0.7334763732	insar
0.7334760478	nec
0.7334487713	self healing
0.7334472517	discontinuous
0.7334343042	statistical
0.7334311119	sybil
0.7334296225	data structure
0.7334132820	ib
0.7333944463	soc design
0.7333757672	human face
0.7333717671	ctl
0.7333698678	rf front end
0.7333597146	liouville
0.7333533025	annealing
0.7333465296	entity
0.7333362523	medical
0.7333349257	ppt
0.7333312527	thirdly
0.7332928799	mediated
0.7332928727	mwf
0.7332928727	lulc
0.7332928727	itg
0.7332915033	rfc
0.7332892143	proliferation
0.7332815121	sfo
0.7332815121	rsl
0.7332730718	physically based
0.7332665981	design methodologies
0.7332620162	ibms
0.7332608740	semantic
0.7332335227	educ
0.7332335227	zealand
0.7332331753	grassmann
0.7332188507	complies
0.7332177545	tn
0.7332067973	motion segmentation
0.7332055967	hdr image
0.7332007365	cec
0.7332007365	smtp
0.7331887104	capacitance
0.7331827343	mcd
0.7331745066	traffic accidents
0.7331693411	sobel
0.7331560492	weber
0.7331560492	einsatz
0.7331526228	tor
0.7331365688	benchmark circuits
0.7331343791	impact analysis
0.7331289226	certificate based
0.7331209053	space borne
0.7331192577	asi
0.7331143603	anwendungen
0.7331095342	improving
0.7330945210	weka
0.7330867858	pis
0.7330809012	individual classifiers
0.7330789279	emf
0.7330747807	hierarchical task
0.7330719765	hazardous
0.7330602215	reliable
0.7330448239	powerpc
0.7330447036	meta level
0.7330359357	walking
0.7330257469	micrornas
0.7330227034	infiniband
0.7330222251	mp
0.7329978960	communication overhead
0.7329936445	flow graph
0.7329816319	pke
0.7329816319	awg
0.7329816319	dfc
0.7329699765	nonempty
0.7329652963	pm
0.7329473826	trmm
0.7329289537	ke
0.7329245543	rfa
0.7329071078	hypothetical
0.7329038807	wam
0.7329038807	itsm
0.7329038807	acknack
0.7329023953	neighbour
0.7329014565	stat
0.7328869699	energy constraints
0.7328811242	multi
0.7328770573	ui
0.7328748921	harsh
0.7328737046	imd
0.7328723044	segmentation method
0.7328665343	associate
0.7328485492	ppa
0.7328485492	gdl
0.7328485492	ucc
0.7328485492	gca
0.7328482675	project
0.7328467585	mrm
0.7328467585	loo
0.7328189385	tree
0.7328027727	spea2
0.7328015196	sfa
0.7327840995	prototype implementation
0.7327770742	intersection
0.7327735418	lo
0.7327662106	assigning
0.7327650393	pctl
0.7327636435	sarsa
0.7327624723	mobile sensor
0.7327614836	u
0.7327530669	hg
0.7327496398	order sliding mode
0.7327489185	matroid
0.7327459958	frft
0.7327414405	sleep
0.7327392111	kde
0.7327318508	shortest
0.7327315087	electronic documents
0.7327259067	hydrodynamics
0.7327242493	guidelines
0.7327210661	computational model
0.7326955594	hu
0.7326864282	gk
0.7326550976	sound field
0.7326351941	localization scheme
0.7326229594	biochemical
0.7326224551	vfd
0.7326097932	syn
0.7325928091	uri
0.7325910119	minimization
0.7325886625	rank
0.7325834683	critically
0.7325784572	fu
0.7325608697	broaden
0.7325555353	elementary functions
0.7325546232	iptv service
0.7325381572	stratix
0.7325296766	krasovskii
0.7325190095	cgs
0.7325032614	mysql
0.7325006524	ua
0.7324789096	sk
0.7324745152	non player characters
0.7324725485	robotic hand
0.7324667406	fulfil
0.7324667406	confront
0.7324519751	jt
0.7324229119	mixing
0.7324223354	stg
0.7324190766	hemt
0.7324074947	sso
0.7324005070	musical
0.7323984529	periodic solutions
0.7323962890	lbg
0.7323962890	hrtf
0.7323962890	ldgm
0.7323861539	accessing
0.7323843891	multi user diversity
0.7323819360	microarray images
0.7323644211	multiuser multiple input multiple output mimo
0.7323579467	moon
0.7323568910	analog to digital converter
0.7323537905	loss ratio
0.7323529336	large vocabulary
0.7323507633	software architecture design
0.7323296766	kutta
0.7323273924	xor
0.7323226456	cpso
0.7323122066	kirchhoff
0.7322983735	exploration
0.7322930550	elliptic problems
0.7322818520	ck
0.7322811412	dbpedia
0.7322461655	gms
0.7322442318	ciphertext
0.7322395395	map
0.7322316194	sda
0.7322316194	qmmm
0.7322188507	posedness
0.7322033775	word frequency
0.7321967288	regular graph
0.7321963051	statistically significant
0.7321854730	self regulated learning
0.7321759802	vessel
0.7321733968	mor
0.7321536216	sulcus
0.7321490585	fully automatic
0.7321449329	domain engineering
0.7321353833	eic
0.7321352130	safety properties
0.7321157122	quality metrics
0.7321150916	propagation
0.7321037022	november
0.7321012040	determining
0.7320996451	inclusion
0.7320967488	entry
0.7320936328	aj
0.7320898228	experimental investigation
0.7320892546	jacobians
0.7320814041	tir
0.7320687395	corel
0.7320687191	white space
0.7320625549	multi bit
0.7320556149	hz
0.7320538858	refraction
0.7320368955	spect
0.7320300628	phase shifts
0.7320200182	queuing network
0.7320058673	workings
0.7319911767	axis parallel
0.7319890484	antecedent
0.7319877735	rad
0.7319873001	stopping
0.7319678232	reinforced
0.7319569933	path queries
0.7319534084	testbed
0.7319468587	ps
0.7319443891	rewriting rules
0.7319436743	md5
0.7319409596	inter
0.7319322181	supply noise
0.7319151899	tanner
0.7319113684	substantiate
0.7319102594	zigbee
0.7319096833	wta
0.7319089330	sensing devices
0.7318883585	power transfer
0.7318721820	prohibitively expensive
0.7318613758	interestingly
0.7318518501	incidents
0.7318496436	cnts
0.7318475923	descending
0.7318310096	dice
0.7318237342	non line of sight nlos
0.7318089945	draft
0.7317898110	mat
0.7317843161	reduced reference
0.7317836549	survey
0.7317773657	bioconductor
0.7317755998	exponential
0.7317680775	state variables
0.7317648718	multi user detection
0.7317520956	gpc
0.7317486593	e2e
0.7317265269	pdfs
0.7317261532	corpus
0.7317200653	phase differences
0.7317137112	sensory feedback
0.7317127799	cfr
0.7317118601	characterization
0.7317028564	dwell
0.7316956714	cournot
0.7316914029	duo
0.7316856443	bvp
0.7316796400	farsi
0.7316620016	nonholonomic
0.7316616297	mechatronic
0.7316606359	mec
0.7316606359	mmt
0.7316606359	frp
0.7316572530	visibility
0.7316248366	bfgs
0.7316248366	mcu
0.7316248366	ldc
0.7316082281	tia
0.7316082281	prr
0.7316015881	simultaneous estimation
0.7315977070	eit
0.7315377969	security
0.7315355927	safety requirements
0.7315343024	probability densities
0.7315306596	bridging
0.7315288760	on3
0.7315272391	osher
0.7315081833	hpa
0.7314983861	fire
0.7314955898	4th
0.7314941437	perfect
0.7314892191	oled
0.7314816921	power consumed
0.7314814063	gaining popularity
0.7314773829	short circuit
0.7314683799	zk
0.7314643803	j
0.7314638551	fine
0.7314602448	stbcs
0.7314532128	schrdinger
0.7314476937	quikscat
0.7314321794	maude
0.7314279452	atl
0.7314194903	observation
0.7314102416	variable rate
0.7314008848	throughput gains
0.7313900279	fmc
0.7313740772	mbs
0.7313551899	dsps
0.7313515421	affinities
0.7313420293	rhc
0.7313386188	capacity scaling
0.7313301154	expert
0.7313270439	mapper
0.7313260977	bps
0.7313211131	source routing
0.7313190036	disruption
0.7313056102	long delay
0.7313021134	rnns
0.7312913446	benefited
0.7312796240	slave
0.7312792431	cycling
0.7312759786	computing
0.7312647412	arbeit
0.7312647412	epcglobal
0.7312548762	building
0.7312495028	wirelesshart
0.7312452790	energy cost
0.7312365333	gfq
0.7312275261	test vectors
0.7312192668	on2
0.7312039231	1st
0.7311956071	catheter
0.7311942620	r1
0.7311713039	weakly
0.7311593129	multi agent simulation
0.7311517332	proc
0.7311516903	influential
0.7311234594	grid cells
0.7311136667	d2
0.7310948541	m1
0.7310682344	authenticated
0.7310565005	shock
0.7310534984	jitter
0.7310341058	noisy measurements
0.7310067546	volumetric data
0.7310054571	wc
0.7309856099	mcml
0.7309856099	rdm
0.7309848935	theoretical computer science
0.7309827004	times faster
0.7309735418	ppm
0.7309600183	agent teams
0.7309528580	diffusion processes
0.7309446929	splines
0.7309375948	lin
0.7309275896	x ray
0.7309167336	lbss
0.7309165606	attacker
0.7309141944	middle
0.7308911301	learning
0.7308909420	fischer
0.7308908205	clarke
0.7308894399	media
0.7308857251	removing
0.7308618815	leds
0.7308583076	near infrared
0.7308497389	segmentation
0.7308458906	prob
0.7308209403	cio
0.7308209403	spf
0.7308209403	epg
0.7308161933	mismatch
0.7308133403	acyclic graph dag
0.7308092010	software development project
0.7308062816	m2
0.7308043468	splash
0.7307935248	qas
0.7307898730	zero forcing beamforming
0.7307868328	ues
0.7307850114	bvh
0.7307564535	pointer analysis
0.7307422280	lastly
0.7307405763	dra
0.7307348999	designing
0.7307330083	automatically generating
0.7307284964	user ratings
0.7307209183	class distributions
0.7307193977	reorganization
0.7307157986	aos
0.7307139862	semantic categories
0.7307066075	numerical schemes
0.7306908917	universitys
0.7306894828	higher level
0.7306875555	sin
0.7306308750	wordnet
0.7306203418	rcp
0.7306203418	prng
0.7306203418	rcc
0.7306028430	rfs
0.7306023144	iva
0.7306016124	csps
0.7305963396	adaptive neuro fuzzy
0.7305960270	adls
0.7305827121	olfactory
0.7305759869	delineate
0.7305628859	january
0.7305426207	vrml
0.7305337943	ik
0.7305275694	ansi
0.7305271318	foster
0.7305020780	hierarchical structure
0.7304968717	bk
0.7304914471	routing
0.7304881335	trigger
0.7304659113	weighted
0.7304621453	memoryless
0.7304621342	skype
0.7304486965	compositions
0.7304466667	projection
0.7304425835	descent
0.7304424801	implication
0.7304422916	uncertain environments
0.7304286856	electric
0.7304271614	logic
0.7304243909	evaluation criteria
0.7304045716	cbp
0.7303813462	genomic sequence
0.7303771826	sce
0.7303643815	pra
0.7303492138	data quality
0.7303491021	originates
0.7303356990	dpi
0.7303346208	corner points
0.7303302925	non dominated sorting genetic algorithm
0.7303222551	entwicklung
0.7303180764	otsu
0.7303151631	medical data
0.7303068422	dozens
0.7302931960	assignment
0.7302718441	sdt
0.7302712595	achieving
0.7302599923	aspect oriented software
0.7302457976	cmf
0.7302457976	ftv
0.7302457976	wfst
0.7302457976	sttd
0.7302457976	ibp
0.7302457976	meb
0.7302457976	sbr
0.7302453282	solid
0.7302351405	view video coding
0.7302308712	broadband internet
0.7302295211	adaptive fuzzy
0.7302051917	fbs
0.7302002528	retailer
0.7301885398	grouping
0.7301830327	rpm
0.7301799894	vocabulary
0.7301797077	performance monitoring
0.7301638976	cutting
0.7301601061	imager
0.7301450371	inspired
0.7301314538	impulsive
0.7301169739	lsis
0.7301127149	mcf
0.7301127149	mtt
0.7301127149	tti
0.7301127149	rto
0.7301127149	aom
0.7301127149	fdl
0.7301037022	abstractrnrnthe
0.7300980615	programming models
0.7300919037	dsd
0.7300919037	srb
0.7300919037	amg
0.7300848724	yager
0.7300811281	mdr
0.7300811281	rtc
0.7300811281	gtm
0.7300790523	aba
0.7300725740	lessons
0.7300654387	control policies
0.7300624753	division
0.7300611711	threat
0.7300598238	ni
0.7300572143	cosmos
0.7300487689	evidenced
0.7300338357	cops
0.7300281523	cas
0.7300194206	cell
0.7299952070	aose
0.7299829076	ambients
0.7299719640	stiffness
0.7299686237	coordination
0.7299591371	phonetic
0.7299507949	item level
0.7299480454	qap
0.7299474078	powered
0.7299400175	fault simulation
0.7299344647	abstractrnrna
0.7299275221	spectral
0.7299245677	fp7
0.7299181165	harmonics
0.7299072705	satisfiability problem
0.7298913250	content management
0.7298846873	csg
0.7298834071	web technologies
0.7298821353	oper
0.7298811392	osns
0.7298796400	josephson
0.7298710025	eye
0.7298522260	otherwise
0.7298468148	dacs
0.7298453782	k nn
0.7298407865	x
0.7298223019	parzen
0.7298152491	film
0.7298112615	pk
0.7298028292	depended
0.7297969565	excited
0.7297812152	telephone
0.7297324375	asms
0.7297135043	leaky
0.7297032367	exascale
0.7297010545	likewise
0.7296968884	conversion
0.7296948651	unpredictability
0.7296913974	capacitor
0.7296828278	p2
0.7296786433	mimo transmission
0.7296770217	operational research
0.7296762353	gestures
0.7296709262	product quality
0.7296607098	maintenance policy
0.7296520760	users preferences
0.7296247011	computer mediated communication
0.7296226068	mre
0.7296161365	bonds
0.7296125778	programming skills
0.7296111388	delicious
0.7296012774	theft
0.7296008257	mobile
0.7295914971	scheduling
0.7295882280	link state
0.7295746277	extreme points
0.7295694711	spectral characteristics
0.7295329308	capturing
0.7295327889	eds
0.7295282133	condor
0.7295161153	mog
0.7295048868	deadlock
0.7294957692	adcs
0.7294935497	stacks
0.7294931950	neat
0.7294646868	multiple scattering
0.7294598318	bundle
0.7294567473	sorting algorithms
0.7294485839	shape reconstruction
0.7294478204	rmsd
0.7294432897	multi relay
0.7293992753	kantorovich
0.7293540186	semantic web technology
0.7293525402	nonetheless
0.7293438189	fts
0.7293350397	bu
0.7293258226	fit
0.7293031183	girth
0.7293002789	cleavage
0.7292966196	bpa
0.7292962325	evi
0.7292962325	snm
0.7292956854	tdt
0.7292899818	color coding
0.7292896757	saml
0.7292859270	dynamically changing
0.7292852630	equilibrium points
0.7292818675	smartphone
0.7292633371	research articles
0.7292566679	intersection graph
0.7292560269	existence
0.7292480091	pesq
0.7292412508	breakdown
0.7292403968	alternate
0.7292397450	imaging
0.7292299008	zno
0.7292177735	pulse
0.7292133875	vv
0.7291998111	semiotic
0.7291873126	brain machine
0.7291778791	stewart
0.7291622509	queueing
0.7291554223	3g mobile
0.7291507683	graph clustering
0.7291505364	conserve
0.7291367718	medium access control mac layer
0.7291285853	moisture
0.7291261470	targeting
0.7291260210	social
0.7291209572	widely acknowledged
0.7291147876	long lasting
0.7291074076	biclustering
0.7291050791	distributing
0.7290917286	gene ontology go
0.7290862258	weblogs
0.7290690050	xt
0.7290640047	golomb
0.7290630714	database
0.7290575060	lfp
0.7290465794	donor
0.7290329093	similarity score
0.7290312770	kb
0.7290266284	transductive
0.7290253357	impairment
0.7290103593	225
0.7290093751	security mechanism
0.7290052823	structural analysis
0.7290049447	dep
0.7289854609	flickr
0.7289605553	computable
0.7289393195	listen
0.7289335439	nvidias
0.7289235362	solomon
0.7289231879	primal
0.7289185034	separation
0.7289075141	pcn
0.7289064078	builder
0.7288757079	short note
0.7288647731	finite precision
0.7288433262	eulerian
0.7288421662	probability estimation
0.7288320690	distributed computation
0.7288149324	serially
0.7288016281	mag
0.7287974200	vapor
0.7287777459	quantitative analysis
0.7287712654	tfidf
0.7287683396	ev
0.7287630937	proportional
0.7287411295	shipping
0.7287313471	decision processes
0.7287229755	vivo
0.7287197031	cadcam
0.7287148400	sans
0.7287044044	join
0.7287031022	version control
0.7286994609	embedding
0.7286948334	remote collaboration
0.7286886045	uct
0.7286717810	breach
0.7286486194	givens
0.7286309028	f1
0.7286221650	turning
0.7286062993	emergence
0.7285987387	projecting
0.7285980122	inc
0.7285663308	fsk
0.7285644156	computationally demanding
0.7285560662	multi server
0.7285467025	customizing
0.7285374903	adaptive resource allocation
0.7285317092	neuroimage
0.7285314015	pinpoint
0.7285231680	occ
0.7285127237	research
0.7285009832	opening
0.7284886441	symbol detection
0.7284577580	friction
0.7284573695	pns
0.7284447235	transition
0.7284279002	sva
0.7284180749	error probabilities
0.7284128586	systemc
0.7284122979	design automation
0.7284049729	radio
0.7283973112	incidence
0.7283962637	welfare
0.7283901284	r2
0.7283874174	parsimony
0.7283847421	mg
0.7283832353	digital evidence
0.7283821005	integration
0.7283799703	classically
0.7283785997	feedback control law
0.7283682861	declarative language
0.7283594569	compression scheme
0.7283579459	dynamic routing
0.7283369319	facilitating
0.7283351725	thermo
0.7283253351	masters
0.7283211834	user level
0.7283007500	nox
0.7282999421	fraud
0.7282927217	partition
0.7282759957	parameter space
0.7282709028	asynchronous communication
0.7282527831	films
0.7282354686	gaussianity
0.7282230866	duc
0.7282155428	promise
0.7282135492	count
0.7281994836	encyclopedia
0.7281869666	indoor wireless
0.7281754436	clustering techniques
0.7281681214	nocs
0.7281665747	subpixel
0.7281568686	warehousing
0.7281567570	physical phy
0.7281554785	august
0.7281548256	pilot signal
0.7281465940	retrieved documents
0.7281429267	message passing interface
0.7281375522	access latency
0.7281285442	deduction
0.7281208795	saturation
0.7281087970	flash based
0.7281087677	maxsat
0.7281073835	shear
0.7281047457	esterel
0.7280750031	object based
0.7280677962	617
0.7280642177	desktop pc
0.7280635704	real number
0.7280564101	highly nonlinear
0.7280500589	backgroundrnin
0.7280387228	multi component
0.7280343951	ses
0.7280306625	nanoscale
0.7280181911	tfbss
0.7279977218	planar
0.7279914544	hidden
0.7279754573	compactness
0.7279472535	treebank
0.7279386203	embedded real time systems
0.7279384155	indicator
0.7279379133	repair
0.7279351744	mobile web
0.7279309147	kad
0.7279228818	l3
0.7279089433	foot
0.7279010133	multi carrier code division
0.7278952923	nj
0.7278765717	petascale
0.7278684619	adapter
0.7278650212	facto
0.7278634765	fifty
0.7278615925	artist
0.7278504424	trade
0.7278350180	integer programs
0.7278287081	w2
0.7278252008	cca2
0.7278217222	imfs
0.7278205898	succeeds
0.7278179867	verbs
0.7278154778	jj
0.7278056713	o1
0.7277843042	visual
0.7277759786	global
0.7277727679	front end
0.7277688893	crosscutting
0.7277607368	software tools
0.7277554893	rvs
0.7277280416	finding
0.7277249427	mercury
0.7277232471	custom hardware
0.7277207973	realization
0.7277084649	ca2
0.7277036785	scientific
0.7276997941	statecharts
0.7276962637	parse
0.7276961836	web
0.7276960560	xn
0.7276924328	nls
0.7276918078	block
0.7276803981	ffs
0.7276616349	sirms
0.7276533889	development methodology
0.7276499322	paintings
0.7276419707	pubchem
0.7276397658	cst
0.7276396692	nw
0.7276230091	inl
0.7276230091	xrd
0.7276010256	browsers
0.7275974973	semi autonomous
0.7275880806	data cleaning
0.7275866066	mbps
0.7275768004	expression levels
0.7275747658	noising
0.7275526184	inp
0.7275497390	dx
0.7275466027	monitoring
0.7275465041	october
0.7275387693	unclonable
0.7275350108	parameterised
0.7274994032	determination
0.7274935057	timing
0.7274930319	infinite
0.7274911708	ita
0.7274808120	procrustes
0.7274785269	mpa
0.7274518371	arrange
0.7274513075	tpr
0.7274513075	egt
0.7274482029	colorization
0.7274362092	registration method
0.7274341794	supercomputing
0.7274327599	division multiplexing ofdm
0.7274194498	deadline
0.7274066305	gene
0.7273740608	july
0.7273662035	decomposition
0.7273659766	forthcoming
0.7273652115	msv
0.7273631533	grayscale images
0.7273530481	bibliography
0.7273484106	demand uncertainty
0.7273482259	initiation
0.7273435040	limited resource
0.7273407149	appendix
0.7273351725	factorizations
0.7273263893	industry standards
0.7273233754	maxwells
0.7273225170	desktop computers
0.7273133707	generation
0.7273087758	multiplexing
0.7273087077	tw
0.7273081739	clock rate
0.7273023842	nonlinear filtering
0.7273009366	rbac model
0.7272993308	amharic
0.7272991442	incident
0.7272905723	saga
0.7272866379	iem
0.7272811192	overflow
0.7272794121	relay
0.7272713679	perturbed
0.7272676187	arrows
0.7272596004	outage performance
0.7272347867	fsd
0.7272318266	urls
0.7272125900	dirichlet boundary
0.7272114284	quicksort
0.7271922527	adiabatic
0.7271653050	rethinking
0.7271649883	optical transport
0.7271567636	fourteen
0.7271528653	empirical evaluations
0.7271492753	iip3
0.7271492753	ieee80211
0.7271444277	median problem
0.7271305808	computational
0.7271297266	run time reconfigurable
0.7271278153	qds
0.7271238965	company
0.7271224298	next
0.7271205208	constitution
0.7271180524	access patterns
0.7271164997	mv
0.7271109653	ubiquity
0.7270982853	borrowing
0.7270944891	safety property
0.7270923959	qos driven
0.7270761743	trie
0.7270758983	constitutive
0.7270743810	robinson
0.7270696166	insect
0.7270693495	puma
0.7270687186	inf
0.7270668668	matrix inequalities
0.7270614981	gupta
0.7270614981	fsms
0.7270608999	lure
0.7270568470	lambertian
0.7270318132	polynomial kernel
0.7270298673	self organising
0.7270288101	social learning
0.7270276494	suspended
0.7270253523	singleton
0.7270232657	inversely
0.7270171042	physiology
0.7269956894	it2
0.7269832825	cortical
0.7269818605	co channel interference cci
0.7269633507	router
0.7269618623	wibro
0.7269605553	clutter
0.7269435988	miner
0.7269336109	occipital
0.7269246932	based morphometry
0.7269227936	mpca
0.7269150119	location prediction
0.7269137402	sensemaking
0.7269097098	intranet
0.7268878995	inferential
0.7268839855	gts
0.7268834958	structural information
0.7268706205	rotational
0.7268620423	doas
0.7268527122	memory size
0.7268513434	multi robot systems
0.7268291720	feature sets
0.7267993729	human disease
0.7267990822	functional size
0.7267976300	fetal
0.7267629967	buffer sizes
0.7267567006	smooth surface
0.7267558044	shoulder
0.7267505591	drug
0.7267419440	modulation scheme
0.7267405228	wireless communication systems
0.7267161733	offshoring
0.7267082541	m2m
0.7267042349	anycast
0.7267040136	idct
0.7267032794	cancellation
0.7267013316	event
0.7266936764	aln
0.7266651478	presburger
0.7266474945	diffeomorphic
0.7266332023	examples
0.7266330665	abb
0.7266265449	range finder
0.7266225393	network simulators
0.7266060202	disease related
0.7266045357	cell throughput
0.7265981647	liu
0.7265946489	ecos
0.7265732972	transfer
0.7265702907	profitability
0.7265682784	plsa
0.7265657723	modeler
0.7265619068	entertainment
0.7265393755	occupancy
0.7265386332	measurement
0.7265316987	zhang
0.7265228705	ros
0.7265208356	combating
0.7265160263	lasso
0.7264892862	chordal
0.7264866996	modeling
0.7264850471	network anomaly detection
0.7264842556	swift
0.7264776185	youtube
0.7264380742	excluded
0.7264209566	tracking algorithm
0.7264183238	dct based
0.7264005435	ests
0.7263863725	blending
0.7263847083	machine learning methods
0.7263804963	local geometry
0.7263731691	enrolled
0.7263602173	forth
0.7263468793	divider
0.7263423692	ingredient
0.7263170190	coevolution
0.7263169720	wsans
0.7262929877	trial
0.7262865680	swarming
0.7262725976	station
0.7262655412	contraction
0.7262620030	novice users
0.7262580055	skewed
0.7262522486	labor
0.7262495872	information loss
0.7262452580	no2
0.7262415573	security framework
0.7262409329	joint optimization
0.7262336131	sys tems
0.7262276616	purchase behavior
0.7262165575	nfrs
0.7262152231	coherent
0.7262057973	state space model
0.7262046103	robustness
0.7261975740	presentation
0.7261827031	correspondingly
0.7261721569	finitely
0.7261490901	n400
0.7261446341	confidentiality
0.7261400953	ssr
0.7261308092	systeme
0.7261246192	accurate segmentation
0.7261226982	ect
0.7261180269	legacy
0.7261104148	thorough
0.7260997322	vi
0.7260870751	amplify and forward relay
0.7260712581	geometric
0.7260381898	revisiting
0.7260182572	openmp
0.7260052828	panel data
0.7259642245	link structure
0.7259517852	ptc
0.7259399419	synchronization
0.7259385057	uwsns
0.7259368132	application server
0.7259348717	enabling
0.7259337015	technical report
0.7259304741	grc
0.7259161101	xen
0.7258841110	mote
0.7258779543	guiding
0.7258755246	diese
0.7258747927	refractive
0.7258604637	roe
0.7258579795	acl2
0.7258573539	life
0.7258558291	hmipv6
0.7258558291	ecog
0.7258538968	vendor
0.7258314984	thermal
0.7258123483	variational framework
0.7258008898	conforms
0.7257934369	hep
0.7257656451	comm
0.7257656148	reflectance
0.7257637090	certificateless
0.7257529756	love
0.7257424726	b2b
0.7257308673	shifting
0.7257280876	radios
0.7257075933	compilation
0.7257070183	disclose
0.7257035479	flex
0.7256935726	poor quality
0.7256830032	stability
0.7256637615	minors
0.7256604339	proxy re encryption
0.7256515190	random noise
0.7256453682	fuzzy clustering algorithm
0.7256394654	grns
0.7256367680	bpso
0.7256277804	wiley sons
0.7256276678	gen
0.7256107807	participation
0.7256098275	amplify and forward af
0.7256066751	manually annotated
0.7256048353	regulatory elements
0.7256042455	architecting
0.7256012562	v
0.7255817652	preliminary results
0.7255612913	robust statistics
0.7255423433	bayesian framework
0.7255354967	cancer cell
0.7255336366	mixture
0.7255286594	age gender
0.7255228283	distribution network
0.7255212754	identifiable
0.7255166612	guess
0.7255076469	pm10
0.7255050682	characterising
0.7254967072	paint
0.7254742591	robust adaptive
0.7254723825	trusted third party
0.7254636332	continuous
0.7254529287	retinex
0.7254502370	informally
0.7254127795	research institute
0.7254106844	allocation schemes
0.7254105111	kk
0.7254082783	tagger
0.7254029558	multimodality
0.7254028468	chirp
0.7253972057	guaranteeing
0.7253900696	approximate
0.7253868477	mobile radio
0.7253746336	terrasar x
0.7253364249	kalman filter based
0.7253354480	keeping
0.7253329488	xquery
0.7253247407	stencil
0.7253068802	overall
0.7253021626	compression technique
0.7252946323	reinforcement
0.7252921288	focusing
0.7252873356	path routing
0.7252802962	collocation
0.7252709121	multiservice
0.7252692309	emitted
0.7252551487	pinning
0.7252392520	takagi sugeno t s fuzzy
0.7252325053	routing policy
0.7252073158	riesz
0.7252052582	websites
0.7251744992	chip design
0.7251608959	agent communication
0.7251355182	auvs
0.7251355182	vese
0.7251251777	hamiltonicity
0.7251182210	internetware
0.7251170540	dungs
0.7250933153	weak
0.7250745162	markerless
0.7250727624	panchromatic
0.7250724692	content based video
0.7250655173	smartphones
0.7250602637	signal intensity
0.7250587319	insertions
0.7250552301	dbr
0.7250552301	pbil
0.7250523365	wiimote
0.7250497623	publishsubscribe systems
0.7250458893	submission
0.7250431141	folds
0.7250408826	conversely
0.7250334875	direct
0.7250225535	underlay
0.7250096554	evolutionary design
0.7250029036	image alignment
0.7250018873	q1
0.7249982232	network bandwidth
0.7249980588	walker
0.7249927021	piecewise
0.7249879292	ecus
0.7249869095	redirection
0.7249681776	expansions
0.7249149556	collaborative networks
0.7249107482	nfps
0.7249066903	probe
0.7249041740	hn
0.7249003452	concretely
0.7248880353	current
0.7248808054	webcam
0.7248682296	vii
0.7248556866	l
0.7248356416	multiple input
0.7248289053	navigation
0.7248288216	genomic data
0.7248257100	pq
0.7248088985	enablement
0.7248051637	extractive
0.7247960698	servo
0.7247896728	unweighted
0.7247853831	radiation pattern
0.7247828716	stabilisation
0.7247661400	standard cell
0.7247421109	generating
0.7247346936	norms
0.7247316987	jpeg2000
0.7247135425	kriging
0.7246934004	archival
0.7246875195	multiplied
0.7246795049	matching problem
0.7246773074	web track
0.7246731931	spatial
0.7246543567	ansatz
0.7246480125	semantic indexing
0.7246264949	performance measures
0.7246010196	encouraged
0.7245920163	concavity
0.7245484332	chlorophyll
0.7245457185	mutual information based
0.7245418678	binary image
0.7245356942	data set
0.7245334827	redundancy
0.7245280932	psms
0.7245182242	policy language
0.7245174997	makers
0.7245160900	meeting
0.7245047876	chaotic time series
0.7244879292	itss
0.7244851193	modelling
0.7244799028	mixed strategy
0.7244748924	compiler
0.7244662265	communication skills
0.7244287104	queued
0.7244194860	au
0.7244179162	tt
0.7244054200	converging
0.7243975627	inventory model
0.7243832081	asymmetrical
0.7243784694	tool support
0.7243695073	ter
0.7243636453	transistor
0.7243599614	window
0.7243246633	inertia
0.7243234199	satisfiability modulo
0.7243201946	gnutella
0.7243055678	business
0.7242941001	maxent
0.7242825795	weblog
0.7242821530	imaging modality
0.7242711580	translator
0.7242584177	tendon
0.7242583632	cliques
0.7242467002	fmipv6
0.7242358094	received signals
0.7242289063	sec
0.7242287235	rijndael
0.7242099397	multilayered
0.7241960553	r0
0.7241590917	social support
0.7241379252	mris
0.7241238901	fog
0.7241230731	ising model
0.7241186118	controlled experiments
0.7241167905	hyperion
0.7241146257	director
0.7240922047	structural
0.7240802139	remarks
0.7240792254	altitude
0.7240780688	data reduction
0.7240690488	ancestor
0.7240677322	polynomial complexity
0.7240584252	empowering
0.7240551298	fermat
0.7240346995	protein identification
0.7240199305	stroke
0.7240140912	subcarrier
0.7239803756	theme
0.7239792874	md simulations
0.7239718015	tracking
0.7239524770	coded
0.7239522338	dvb h
0.7239519132	fuzzy membership
0.7239475397	autocorrelation
0.7239453090	cancel
0.7239431033	vandermonde
0.7239309489	locality
0.7239243844	technological advances
0.7239091219	chip
0.7239066827	inhibitory
0.7238958528	daunting
0.7238906538	smooth transition
0.7238659251	shape similarity
0.7238403997	ow
0.7238369103	reflector
0.7238294082	hermes
0.7238154688	infrared spectroscopy
0.7238056829	secrecy
0.7237948854	sie
0.7237876172	noting
0.7237851687	eager
0.7237819641	lax
0.7237771644	stream
0.7237500690	holder
0.7237452399	eigenvalue
0.7237365175	d3
0.7237335673	concise
0.7237308064	activate
0.7237294162	mber
0.7237177735	trace
0.7237167256	kang
0.7237167256	iscas89
0.7237167256	iscas85
0.7237026322	biological databases
0.7236992095	ghost
0.7236865622	dense
0.7236833000	daten
0.7236803892	visual field
0.7236790291	aerial
0.7236743724	altering
0.7236701506	clientserver
0.7236648855	technicians
0.7236556002	atms
0.7236495046	action space
0.7236024744	multihoming
0.7235908977	labelled
0.7235854145	video delivery
0.7235842780	vertically
0.7235801142	relieff
0.7235732149	disjoint
0.7235661275	detailed
0.7235653170	fuzzy inference systems
0.7235559898	microstrip
0.7235468229	bindings
0.7235456582	metamorphic
0.7235432794	x1
0.7235252828	cybernetics
0.7235104122	logit
0.7235101417	pdas
0.7234976568	multi channel mac
0.7234681005	functor
0.7234640089	massive
0.7234592430	scope
0.7234541229	musical noise
0.7234519403	mea
0.7234496577	barrier
0.7234318820	jiang
0.7234289103	mechatronics
0.7234141883	high contrast
0.7234111238	traceroute
0.7234109587	irrespective
0.7233942897	checklist
0.7233911654	library queens university belfast n
0.7233814386	mini
0.7233772564	suffered
0.7233772564	reside
0.7233617690	keynote
0.7233418616	b1
0.7233396710	fulfillment
0.7233375101	formalisation
0.7233334529	derivative
0.7232883570	scent
0.7232847445	dashboard
0.7232747287	wishing
0.7232627932	interpolate
0.7232579548	collaborative modeling
0.7232518151	multifractal
0.7232515347	inc comput appl eng educ
0.7232459426	parser
0.7232439816	nanowire
0.7232433728	holonic
0.7232402680	oligonucleotide
0.7232261209	ple
0.7232237753	80221
0.7232201939	hardware implementations
0.7232062240	apis
0.7232057693	pixel based
0.7231863641	robust controller
0.7231582937	scheduler
0.7231516305	nystrom
0.7231442086	proceeding
0.7231428263	dirty
0.7231255802	cves
0.7231211908	ppv
0.7231164630	rooms
0.7231072109	optimized
0.7230890661	initial
0.7230884895	nomadic
0.7230879816	cost effectiveness
0.7230855559	haplotype
0.7230814252	optimal offline
0.7230749886	aams
0.7230749762	planning
0.7230674684	deviate
0.7230652797	k means clustering
0.7230487463	ten
0.7230437494	brokering
0.7230383023	cross cutting
0.7230247154	older users
0.7230229011	creol
0.7230211841	gbps
0.7230115934	anticipatory
0.7230031511	establishment
0.7230030762	central authority
0.7229938975	householder
0.7229928326	business operations
0.7229922490	suffice
0.7229758127	uncovering
0.7229713158	jacket
0.7229712958	sturmian
0.7229678402	trojans
0.7229660485	tradeoffs
0.7229465645	socs
0.7229364656	development
0.7229344769	childrens
0.7229181235	traffic classification
0.7229066807	reliability
0.7228975423	generators
0.7228844345	oscillator
0.7228820191	navigation support
0.7228617463	cpgs
0.7228529909	bend
0.7228491758	oblique
0.7228465528	coefficient matrix
0.7228199058	long term memory
0.7228186157	informal learning
0.7228173208	pleasure
0.7228022481	unlicensed
0.7228006023	fv
0.7227937458	ycbcr
0.7227888681	modulate
0.7227866664	image pairs
0.7227781454	special
0.7227761199	backoff algorithm
0.7227697907	conventional wisdom
0.7227688664	evidently
0.7227644210	luminance
0.7227641183	quasirandom
0.7227624427	choreographies
0.7227403968	closest
0.7227375070	f2
0.7227220827	resonators
0.7227152190	perfect channel state information
0.7227147656	proximity
0.7227089121	browsing
0.7227088925	noisy channel
0.7227039805	query
0.7227028392	glitch
0.7226903345	cams
0.7226893955	ant based
0.7226866692	testing
0.7226743027	personalizing
0.7226315367	phosphorylation
0.7226299343	dieser
0.7226298928	signal to interference ratio sir
0.7226150184	21578
0.7226082257	scaffolding
0.7225963965	isolation
0.7225616353	confusion
0.7225609620	tiger
0.7225609558	honeypot
0.7225598917	rankboost
0.7225365056	gittins
0.7225178952	tracer
0.7225062604	geometric constraints
0.7224974946	communication link
0.7224866006	sixteen
0.7224755361	ieee international
0.7224619868	centered design
0.7224593083	inter subject
0.7224555852	integration testing
0.7224541824	standpoint
0.7224483518	754
0.7224466423	vor
0.7224412402	spinning
0.7224261430	needle
0.7224210327	standard deviations
0.7224098488	thanks
0.7223529773	malware analysis
0.7223417824	terminate
0.7223401472	multimedia objects
0.7223354074	clause
0.7223312795	subdivision
0.7223232624	uniqueness
0.7223164937	sieve
0.7223109655	planetlab
0.7223059419	flatness
0.7223040327	suppose
0.7222980219	spreadsheets
0.7222932415	mobius
0.7222893200	feature descriptors
0.7222782703	vcp
0.7222633203	kademlia
0.7222633203	bengali
0.7222621414	correspondence
0.7222531402	fr
0.7222487244	political
0.7222447932	mibench
0.7222442706	shader
0.7222413340	glide
0.7222350143	kumar
0.7222350143	ffts
0.7222218064	deposited
0.7222154132	protein binding
0.7222066659	deposition
0.7222023251	presently
0.7221988341	packaging
0.7221970768	bsns
0.7221800410	s4
0.7221539917	clinical
0.7221404149	universities
0.7221351740	high speed networks
0.7221166792	bipartite
0.7221111098	malignant
0.7221023704	computationally intensive
0.7220703685	semi structured data
0.7220695595	d2d
0.7220680881	compositionality
0.7220653118	instantiate
0.7220600940	hybrid algorithm
0.7220597151	placement
0.7220551390	altogether
0.7220473448	immersed
0.7220267285	theory
0.7220189815	analogical
0.7220168722	fax
0.7220132421	text based
0.7220073418	multicast traffic
0.7219887567	june
0.7219840413	instead
0.7219823278	ndcg
0.7219820073	swim
0.7219720349	attentive
0.7219552999	group
0.7219534984	genomic
0.7219453504	curated
0.7219451604	transistor level
0.7219411109	conceptual model
0.7219402936	retrieval
0.7219394021	mine
0.7219360985	coloring problem
0.7219197704	mobile platform
0.7219157962	vcos
0.7219157962	polinsar
0.7219089273	sketch
0.7218782660	viewpoint
0.7218483201	medical information
0.7218447195	opp
0.7218434768	spotlight
0.7218396692	dbc
0.7218362572	proximal
0.7218260690	surviving
0.7218207779	pons
0.7218100564	staged
0.7218089690	enhancement layers
0.7218075329	nonrigid
0.7217968670	cyberspace
0.7217917242	converse
0.7217809840	communication medium
0.7217349899	overcomplete
0.7217290912	intent
0.7216716648	trss
0.7216652277	nsr
0.7216629735	annotator
0.7216554233	backgroundrnthe
0.7216539876	majority
0.7216499963	egocentric
0.7216486076	frequently occurring
0.7216484173	elevator
0.7216358758	co
0.7216176978	undo
0.7216173839	assignment scheme
0.7216151780	metrology
0.7216073856	prediction models
0.7216031331	pfaffian
0.7215881027	large scale wireless sensor networks
0.7215805528	chua
0.7215610702	traffic patterns
0.7215587766	winning
0.7215495474	conventionally
0.7215384124	typed
0.7215207691	son
0.7215085967	discrete
0.7214973248	battery
0.7214863182	t0
0.7214778356	tg
0.7214662585	tableaux
0.7214460612	anchoring
0.7214447894	cluttered environment
0.7214151054	near duplicate
0.7214119170	nielsen
0.7214038170	neuronal
0.7213958318	graphics
0.7213942400	upgrade
0.7213813919	reduct
0.7213796614	optimization technique
0.7213497941	onion
0.7213480129	dn
0.7213343503	pubsub
0.7213166352	chen
0.7213155435	stein
0.7213102562	mathematical theory
0.7213041508	symmetric
0.7212893103	checkers
0.7212863818	malicious traffic
0.7212860300	periodicals
0.7212744135	cued
0.7212738377	revising
0.7212676738	arguing
0.7212582961	realizability
0.7212554282	invariants
0.7212486850	invested
0.7212486850	geared
0.7212438823	io performance
0.7212380473	oscillatory
0.7212378044	binary
0.7212232458	diagonal elements
0.7212196094	db gain
0.7212189807	walking pattern
0.7212045068	software implementation
0.7212013682	middleware architecture
0.7212008273	fastica
0.7212001142	linked
0.7211793873	latitude
0.7211726263	cache size
0.7211719786	associations
0.7211661363	excellence
0.7211546259	rbfs
0.7211325879	courseware
0.7211221700	kn
0.7211039538	cor
0.7210932278	protege
0.7210793227	wireless
0.7210779965	maturing
0.7210718335	reasoning
0.7210700392	cette
0.7210631315	parallel computers
0.7210562621	anomaly
0.7210554282	defining
0.7210448830	tat
0.7210411186	key issues
0.7210323191	commerce
0.7210249412	continued
0.7210190847	graphene
0.7210190847	deniable
0.7210166671	interval analysis
0.7210002469	equivalence class
0.7209683483	server
0.7209678335	tracking errors
0.7209670665	dynamic environment
0.7209633230	mapping
0.7209606873	ha
0.7209485939	prediction method
0.7209432960	blanket
0.7209355053	spread
0.7209351520	sensory
0.7209341356	rec
0.7209335347	sliding
0.7209331913	sensitivity specificity
0.7209245573	globally
0.7209241996	event sequences
0.7209027590	covariate
0.7208964810	network aware
0.7208859599	deformation
0.7208856030	abduction
0.7208834517	summarisation
0.7208718982	digitally
0.7208642358	gps enabled
0.7208613677	peering
0.7208608147	sysml
0.7208415224	tips
0.7208219559	sensorless
0.7208175323	military
0.7208146344	simulator
0.7208112362	tracking method
0.7208074355	ranged
0.7208066640	informed
0.7208026934	data cubes
0.7207967293	subject specific
0.7207794326	lanczos
0.7207677154	bag of visual words
0.7207618701	opt
0.7207557671	mirroring
0.7207555221	acknowledged
0.7207544980	mammography
0.7207521562	p005
0.7207185416	gcd
0.7207167120	multiband
0.7207040280	creating
0.7206780260	multi agent architecture
0.7206771890	optimization
0.7206758515	phi
0.7206405363	dining
0.7206366852	mathematical
0.7206068134	scene analysis
0.7205950967	modelo
0.7205939578	hospitals
0.7205902884	herding
0.7205889413	budget constraints
0.7205843910	avoiding
0.7205791546	obtainable from cpc program
0.7205665755	thin film
0.7205616808	diffused
0.7205351430	allocation strategy
0.7205300344	reflections
0.7205286961	avionics
0.7205163331	hairpin
0.7205104725	demosaicking
0.7205093343	amplify
0.7205092537	carrier
0.7204795653	agglomerative
0.7204496577	memories
0.7204282299	inhibition
0.7204208474	mental
0.7203978344	lower priority
0.7203871129	belief function
0.7203846113	multi media
0.7203831385	elgamal
0.7203828578	junction
0.7203765673	sensor based
0.7203721090	shape parameter
0.7203703091	nucleotide polymorphisms snps
0.7203670370	breath
0.7203637988	unconditionally
0.7203626949	npcs
0.7203604922	independence assumption
0.7203599852	eco
0.7203593829	smell
0.7203574508	publish
0.7203337507	scatter matrix
0.7203218134	middlebury
0.7202755357	log
0.7202640584	network structure
0.7202627206	reallocation
0.7202626629	aggregate
0.7202577660	resume
0.7202108213	information technologies
0.7201989612	ces
0.7201757219	greedy search
0.7201728932	rm
0.7201714254	artificial
0.7201659506	training sample
0.7201644112	bitmap
0.7201428941	straight forward
0.7201401813	synchronization error
0.7201362982	text indexing
0.7201339867	telematics
0.7201231985	mixture components
0.7201179139	multitarget
0.7201053512	mm1
0.7200867368	detection rates
0.7200850098	submicron
0.7200820700	games
0.7200581985	stas
0.7200459558	search results
0.7200379439	k nearest neighbour
0.7200310697	walkthrough
0.7200252293	p2psip
0.7200242957	hand tracking
0.7200094807	mech
0.7199950916	virtual spaces
0.7199949902	crowdsourcing
0.7199947797	aliasing
0.7199936733	ubicomp
0.7199808782	lid
0.7199721800	semi parametric
0.7199709001	airspace
0.7199659318	computerised
0.7199612953	outsourced
0.7199553396	onset
0.7199476191	q
0.7199456853	personas
0.7199383516	intravascular
0.7199253874	implementers
0.7199201207	asymptotical
0.7199140116	game
0.7199062412	climbing robot
0.7198986893	multi unit
0.7198882707	modulation technique
0.7198860516	clutch
0.7198765682	eegfmri
0.7198591596	keying
0.7198530683	shunt
0.7198468070	spls
0.7198300917	nonlinear functions
0.7198247824	ifss
0.7197954159	discretization
0.7197929685	random field mrf
0.7197781059	singer
0.7197682125	optical burst
0.7197505465	suffix
0.7197476097	multirobot
0.7197464431	bandgap
0.7197357562	future challenges
0.7197290250	pronoun
0.7197209818	ass
0.7197100857	automatically generated
0.7197066659	mismatches
0.7197065594	flexible job shop
0.7196986209	protected
0.7196876938	curry
0.7196864479	flow rates
0.7196775164	adjoining
0.7196761990	wheeler
0.7196761990	kuramoto
0.7196761990	illumina
0.7196739218	landslide
0.7196739218	paraphrase
0.7196667860	nicolson
0.7196667860	gelfand
0.7196593878	gpgpus
0.7196567426	tk
0.7196521484	metacognitive
0.7196359621	duplication
0.7196340089	processing chain
0.7196138764	subject variability
0.7196082754	discrepancy
0.7196008904	holographic
0.7195992365	nonmonotonic
0.7195907624	entrepreneurs
0.7195857330	relational database management
0.7195805296	spectre
0.7195746008	undertake
0.7195706325	patching
0.7195648620	addiction
0.7195647164	encryption standard
0.7195587985	172
0.7195550134	fluent
0.7195441279	functional
0.7195429229	enumerating
0.7195412533	ham
0.7195287884	nerve
0.7195219532	articulatory
0.7195147595	longevity
0.7195112571	user activity
0.7195009155	wavefront
0.7194988462	tabled
0.7194970472	stochastic process
0.7194861785	lookup
0.7194741529	dots
0.7194678951	navigator
0.7194553131	medical knowledge
0.7194545543	flat rayleigh fading
0.7194355927	bigram
0.7194335162	crypto
0.7194271962	theses
0.7194254410	uncoordinated
0.7194198013	privacy risk
0.7194181576	image sensor
0.7194141802	autocorrelation function
0.7194015326	linguistic knowledge
0.7193950208	customer
0.7193827168	raw data
0.7193825231	psychophysiological
0.7193772564	renewed
0.7193752895	interacted
0.7193661049	access pattern
0.7193498755	crafted
0.7193432846	cross
0.7193333801	locking
0.7193193579	inherited
0.7193065116	freeway
0.7192975519	cognitive networks
0.7192957371	heaps
0.7192728234	accreditation
0.7192707535	filtering
0.7192705446	spatially
0.7192603806	discrimination
0.7192512758	traveler
0.7192488935	plugin
0.7192451814	recombination
0.7192298864	banks
0.7192207544	mechanical
0.7192075565	receptive
0.7192063921	hue
0.7191945712	low speed
0.7191854443	flux
0.7191795363	sonification
0.7191685171	seus
0.7191676944	femto
0.7191673002	steerable
0.7191589410	ground
0.7191560866	quadtree
0.7191560866	empowerment
0.7191489750	comfa
0.7191330550	familiarity
0.7191243270	acknowledgment
0.7191143797	characterisation
0.7191074401	transliteration
0.7191051033	scatternet
0.7190925967	dimensional space
0.7190795685	official
0.7190728850	creative design
0.7190680353	multirate
0.7190662758	dolev
0.7190646076	exploitation
0.7190597544	internal model
0.7190555756	ldcs
0.7190533250	customs
0.7190517857	petri
0.7190454950	fictitious
0.7190207341	semisupervised
0.7190181005	bis
0.7190118281	clocked
0.7189789924	compass
0.7189738696	magneto
0.7189705381	full duplex
0.7189660429	phase type
0.7189634506	013m
0.7189578729	protein
0.7189530860	hepatitis
0.7189417390	instance based
0.7189399845	caltech
0.7189396780	concentrating
0.7189357832	ges
0.7189346562	neuro fuzzy systems
0.7189293965	locator
0.7189177822	external force
0.7189074791	pipes
0.7189026856	gene expressions
0.7188844571	flower
0.7188843711	zigzag
0.7188708228	sq
0.7188535978	oriented
0.7188496955	seeking
0.7188415664	yield loss
0.7188330422	shuffle
0.7188167967	instants
0.7188144158	biodiversity
0.7188088569	gradient descent algorithm
0.7188076583	timing constraint
0.7187999115	pebbles
0.7187932992	variable density
0.7187911005	positivity
0.7187857944	multicell
0.7187832598	discrete time switched
0.7187705813	neighbourhood
0.7187670033	accuracy improvement
0.7187236028	channel condition
0.7187161319	once
0.7187066756	reconciling
0.7187009709	prediction
0.7186910407	evidence based
0.7186875930	undergraduates
0.7186651643	inlet
0.7186625783	rewrite
0.7186622363	protocol
0.7186520583	performability
0.7186507562	network formation
0.7186427067	situ
0.7186397256	cm
0.7186387602	learning processes
0.7186201255	proportionate
0.7186146962	homomorphisms
0.7186119066	compatibility
0.7186054345	thirteen
0.7185936806	square error
0.7185936716	engineering process
0.7185888620	plain text
0.7185826822	peer to peer file sharing
0.7185823881	systemen
0.7185722195	autopilot
0.7185530747	interworking
0.7185311328	telecare
0.7185199640	neural
0.7185133585	spaceborne
0.7184996887	masked
0.7184884840	confidential data
0.7184865539	catalogue
0.7184849933	pilot study
0.7184840485	perspective
0.7184692727	fact
0.7184687409	argument
0.7184686403	eigenmaps
0.7184670059	tradition
0.7184397050	classic
0.7184310849	numerical methods
0.7184246112	apen
0.7184236953	nonbinary
0.7183986109	ref
0.7183823902	k2
0.7183788864	forestry
0.7183784484	spanned
0.7183740130	facilitator
0.7183603070	underpinnings
0.7183310198	matchmaking
0.7183298154	interactome
0.7183203625	botnets
0.7183154350	workflow systems
0.7183123257	fx
0.7183122346	explanation
0.7182940292	complexity measure
0.7182939959	real time embedded systems
0.7182865879	lk
0.7182811735	haptics
0.7182756536	h
0.7182736930	webgis
0.7182581418	flattening
0.7182545825	rescheduling
0.7182516706	medium sized enterprises
0.7182428764	steganography
0.7182428162	base classifier
0.7182398860	biomimetic
0.7182374706	ladder
0.7181883276	interconnection
0.7181836228	realise
0.7181833521	diffuse
0.7181714565	v3
0.7181700690	multilabel
0.7181676617	economy
0.7181459328	nics
0.7181436737	quasi random
0.7181077549	multistatic
0.7181046849	elastography
0.7180676173	surrounded
0.7180338561	intuitively
0.7180271614	agent
0.7180201481	optical communication
0.7180016127	varies depending
0.7179947145	vth
0.7179937121	numerical
0.7179630505	experimentations
0.7179580169	synchronization protocol
0.7179516459	multiway
0.7179178007	rolling
0.7179101149	q2
0.7178775931	standalone
0.7178729020	nucleic
0.7178703506	collaboration
0.7178605810	formal
0.7178447087	simultaneous transmissions
0.7178423545	complementing
0.7178382633	group member
0.7178313872	sharp
0.7178226589	fractals
0.7178101244	ultra high
0.7178055528	angiogenesis
0.7178005409	matching
0.7177931819	compromised nodes
0.7177863292	adhere
0.7177840844	world
0.7177833450	glottal
0.7177755472	manipulability
0.7177737088	isosurface
0.7177654458	maxmin
0.7177646814	online social
0.7177646019	lookahead
0.7177577674	monogenic
0.7177571644	light
0.7177445581	mpfc
0.7177355186	equitable
0.7177298190	unfortunately
0.7177249168	environmental noise
0.7177132991	telemedicine
0.7177015893	square
0.7176744215	microcalcifications
0.7176701739	workbench
0.7176689294	channel feedback
0.7176596709	ns2
0.7176574160	rationality
0.7176494133	relying
0.7176399288	solitary
0.7176244542	fk
0.7176237552	image feature
0.7176064997	info
0.7176021792	glue
0.7176016026	duplex
0.7175935419	manufacturing processes
0.7175721770	communications
0.7175664089	video analysis
0.7175575158	temporal
0.7175567517	semiconductor industry
0.7175420630	multihomed
0.7175253553	z
0.7175193246	enlarge
0.7175156423	preference
0.7175077787	reweighted
0.7175040720	publication
0.7174923970	productive
0.7174883680	besov
0.7174786313	imprecise
0.7174739188	mega
0.7174676450	density based
0.7174411408	recognizer
0.7174407085	fuzzy evaluation
0.7174277126	telemetry
0.7174227751	quadratic programming problem
0.7174206213	rating
0.7174065383	gcc
0.7174058191	implications
0.7174000454	eliciting
0.7173960547	character
0.7173704777	hetero
0.7173690013	focus groups
0.7173651459	reduced order model
0.7173598433	recognition accuracy
0.7173351383	skipping
0.7173291872	dispersion
0.7173270230	optically
0.7173240827	contiguous
0.7173118793	idealized
0.7173097853	empirical findings
0.7173021115	reminder
0.7172951889	morphing
0.7172902868	sx
0.7172614759	alternans
0.7172524686	pyramids
0.7172508504	exclude
0.7172451291	recoverable
0.7172441687	convection
0.7172288240	scarcity
0.7172114370	latex
0.7172085544	sliced
0.7172084998	unit
0.7171996201	neural networks with time varying delays
0.7171916438	scratchpad
0.7171857183	videogames
0.7171640668	error free
0.7171628146	cell processor
0.7171592372	user scheduling
0.7171458481	reuse
0.7171438185	galaxy
0.7171421162	symbiosis
0.7171261600	ported
0.7171153504	epitope
0.7171128826	anisotropy
0.7170845223	blood
0.7170820868	ambient noise
0.7170762113	w
0.7170603689	decouple
0.7170533128	honeypots
0.7170473242	aeronautical
0.7170473242	dithering
0.7170338442	onoff
0.7170312861	multiple sources
0.7170302243	look ahead
0.7170247874	calling
0.7170226742	visualising
0.7170055974	personalisation
0.7169998539	flush
0.7169937004	multimedia files
0.7169934189	meme
0.7169684601	mosaicing
0.7169682218	fringe
0.7169626134	licence
0.7169597989	honeycomb
0.7169582672	harnessing
0.7169371325	reducing
0.7169235267	labeled samples
0.7169188751	traffic condition
0.7169060187	large displays
0.7168822380	isolate
0.7168738929	pins
0.7168705768	metadata
0.7168638743	divisive
0.7168621868	ii fpga
0.7168512646	mann
0.7168399906	rfid applications
0.7168238638	metal oxide semiconductor cmos
0.7168234407	commonly encountered
0.7168182379	eyelid
0.7168176431	polymorphisms
0.7168173152	network analysis
0.7168142086	adaptation
0.7168031003	eegs
0.7167863292	receding
0.7167768901	improved particle swarm optimization
0.7167697534	n2
0.7167631127	un
0.7167616412	fuzzy entropy
0.7167575087	pools
0.7167383884	comprehend
0.7167362902	analyser
0.7167246272	virtualization technologies
0.7167122335	qos metrics
0.7167027181	wayfinding
0.7166992636	algorithmic complexity
0.7166888240	vod services
0.7166548777	motion field
0.7166409077	tessellations
0.7166314924	sparseness
0.7166243336	grounded
0.7166137877	fps
0.7166069294	dioxide
0.7165818116	multi party computation
0.7165791999	sinks
0.7165722489	photogrammetric
0.7165680353	multiply
0.7165666885	cheating
0.7165576536	afforded
0.7165532684	p4
0.7165473242	flags
0.7165465025	resides
0.7165268346	hypermedia
0.7165080850	253
0.7164880352	centralized
0.7164868601	genetic
0.7164829929	bagging
0.7164809383	iterative methods
0.7164698378	dilemmas
0.7164439088	micro architectural
0.7164292060	diary
0.7164186190	camera tracking
0.7164123252	priced
0.7164046299	wavelength
0.7163915134	backbone networks
0.7163771973	datum
0.7163756404	composition
0.7163614510	simulation models
0.7163565656	network services
0.7163438714	licenses
0.7163421884	textual information
0.7163399581	miniaturized
0.7163340915	choosing
0.7163214180	widely accepted
0.7163099428	diagnostic accuracy
0.7163048912	internationalization
0.7163043452	desarrollo
0.7162856654	radiometry
0.7162740076	groves
0.7162625364	highly efficient
0.7162601220	skin
0.7162481185	seasonal
0.7162245848	evidential
0.7162058665	tree pattern
0.7162048511	colonoscopy
0.7161974558	snakes
0.7161974558	neuromorphic
0.7161950618	selection criterion
0.7161896796	g
0.7161763714	genie
0.7161535785	multi sensor
0.7161533201	integrality
0.7161449278	islands
0.7161210365	travel
0.7161168261	peak to average power ratio papr
0.7161032732	essays
0.7160737520	wireless environment
0.7160694001	n1
0.7160633418	na
0.7160626362	virtualization technology
0.7160545575	body shape
0.7160487218	control inputs
0.7160435668	kbps
0.7160434729	alive
0.7160405461	multitasking
0.7160404080	a1
0.7160132379	academia
0.7160129621	origami
0.7160085544	codesign
0.7159925245	asymptotic convergence
0.7159833663	billing
0.7159781454	coding
0.7159735780	retry
0.7159729564	subgradient
0.7159629134	ownership
0.7159621617	mediators
0.7159596484	poisson processes
0.7159538924	web services discovery
0.7159315428	acceptance rate
0.7159269508	planarity
0.7159227748	sham
0.7159131610	witness
0.7158974976	biochemistry
0.7158964977	trips
0.7158696612	ofdm uwb
0.7158635222	shared channel
0.7158520826	human
0.7158458255	ionospheric
0.7158436403	insight
0.7158398715	puzzles
0.7158359579	susceptibility
0.7158294065	shot
0.7158219751	queuing model
0.7158191295	soma
0.7158174449	state constraints
0.7158131576	macro level
0.7158118937	parametrization
0.7158078081	stones
0.7157921312	visual scene
0.7157898592	quaternary
0.7157790422	dabei
0.7157779753	page
0.7157731076	highly parallel
0.7157519468	weight vector
0.7157458735	cyberinfrastructure
0.7157446353	planner
0.7157373609	putting
0.7157242548	doctoral
0.7157191357	basically
0.7157115008	marketplaces
0.7157091673	mis
0.7156960788	allocation
0.7156901690	hedonic
0.7156626134	certifying
0.7156536909	facing
0.7156193289	language
0.7156104914	test scripts
0.7156008207	security evaluation
0.7155942072	single cycle
0.7155794363	lower level
0.7155728445	parameter uncertainty
0.7155554471	restarting
0.7155349571	korteweg
0.7155317145	c4
0.7155299046	trip
0.7155253082	ahead
0.7155167274	n3
0.7155139244	adaptor
0.7155116731	uncertain
0.7155088862	morphable
0.7154898837	transmission schemes
0.7154883516	deluge
0.7154733265	heartbeat
0.7154717438	bonding
0.7154703856	feeds
0.7154695080	congested
0.7154636702	guarding
0.7154464218	shape retrieval
0.7154436628	precoded
0.7154420040	advisor
0.7154412841	animating
0.7154386171	semantic space
0.7154352349	prot
0.7154297565	nonlinear
0.7154213451	voting scheme
0.7154155326	ignoring
0.7154033070	b2
0.7153985456	highly correlated
0.7153983834	maintenance tasks
0.7153937673	floorplanning
0.7153923489	hotspot
0.7153843042	service
0.7153822060	optimal scheduling
0.7153806181	chemical space
0.7153713055	proponents
0.7153671516	journey
0.7153587684	communication range
0.7153584770	brainstorming
0.7153466228	covering
0.7153435720	multiobjective optimization problem
0.7153367408	atomic
0.7153204592	presence
0.7153185244	computationally intractable
0.7153066229	baseline
0.7152956167	bistable
0.7152824745	associativity
0.7152712995	session initiation
0.7152619392	crime
0.7152383330	transition fault
0.7152382449	verifiable
0.7152202243	token based
0.7152133837	intrinsic
0.7152105830	informations
0.7152040900	proteinprotein
0.7151972369	inverters
0.7151967662	supercomputer
0.7151944852	congestion
0.7151912127	rao bound
0.7151797195	groupwise
0.7151765490	conll
0.7151693326	perceptive
0.7151449186	knowledge integration
0.7151321653	dont
0.7151116099	das
0.7151001337	snake like robot
0.7150866031	nonlinear system identification
0.7150684895	grapheme
0.7150643946	children
0.7150588834	heteroscedastic
0.7150409386	spatial attention
0.7150311403	prognostics
0.7150262723	trucks
0.7150258061	clamped
0.7150222971	xs
0.7150199618	kw
0.7150059700	apex
0.7150032491	robber
0.7149985023	sparsest
0.7149824655	edutainment
0.7149737190	thirty
0.7149562091	glycosylation
0.7149358538	revise
0.7149278286	advisory
0.7149259368	preventive
0.7148935981	matchmaker
0.7148929094	demosaicing
0.7148911178	diagnostic
0.7148761196	filesystem
0.7148710161	predictability
0.7148689185	vote
0.7148687553	metamodeling
0.7148638979	electromyogram
0.7148577834	quantisation
0.7148496220	structural equation
0.7148369087	caption
0.7148270742	stride
0.7148201959	dither
0.7148155640	train
0.7148091786	vault
0.7148069603	robot
0.7147914218	superconducting
0.7147730113	originate
0.7147724222	engineered
0.7147518060	coinductive
0.7147327439	boundary
0.7147154166	optimising
0.7147102983	subclass
0.7147038083	tutor
0.7147021614	linear
0.7146879360	cartography
0.7146872846	commun
0.7146819010	travelers
0.7146818970	folksonomy
0.7146644298	searcher
0.7146550352	tournaments
0.7146360037	robotic platform
0.7146290584	scrambling
0.7146234164	femtocells
0.7146029969	folksonomies
0.7145978109	schema
0.7145930037	class membership
0.7145896775	survivable
0.7145771391	radiometers
0.7145673480	convergence theorems
0.7145594337	prioritization
0.7145473242	learnable
0.7145471740	environmental
0.7145438763	whilst
0.7145417261	summing
0.7145417261	traceable
0.7145413265	grip
0.7145363591	superresolution
0.7145330919	junctions
0.7145275731	triage
0.7145162569	collectives
0.7145157968	temporal coherence
0.7144905548	alias
0.7144830452	sistemas
0.7144825224	struggle
0.7144549086	compiling
0.7144422919	accumulating
0.7144257489	injection
0.7144255179	nonholonomic mobile
0.7144240828	astrophysics
0.7144186216	video
0.7144158603	low dimensional space
0.7144063321	polymorphism
0.7144029806	conforming
0.7143833701	player
0.7143818447	hook
0.7143661314	biogeography
0.7143661242	interrogation
0.7143608432	gloves
0.7143459497	correlation
0.7143245713	adaptative
0.7143058501	divergent
0.7143003689	notoriously
0.7142977644	d
0.7142912232	shooting
0.7142853898	extrema
0.7142663282	clean
0.7142660111	talker
0.7142547335	stack
0.7142394803	fab
0.7142318915	digraph
0.7142186451	intraoperative
0.7142163685	cluster
0.7142102090	virtue
0.7142096554	gaining momentum
0.7142040061	enriching
0.7141989374	historic
0.7141972312	multisource
0.7141972312	loopy
0.7141847010	gossiping
0.7141755257	coalgebraic
0.7141746941	tensor imaging dti
0.7141671002	efficient routing
0.7141437023	bijection
0.7141393002	verifiability
0.7141378004	slider
0.7141355125	artificially generated
0.7141208153	small group
0.7141203252	monads
0.7141200446	continuous functions
0.7141199932	interprocedural
0.7141138985	varieties
0.7141085467	identification
0.7140939198	contextualized
0.7140856853	infinitary
0.7140785527	pads
0.7140584642	responded
0.7140530441	hyponymy
0.7140520524	simulative
0.7140520441	antenna
0.7140495454	old
0.7140489174	watermarking technique
0.7140306484	acids
0.7140029681	driven
0.7139981279	negotiate
0.7139786292	compliant
0.7139775169	small delay
0.7139734558	lights
0.7139719512	graded
0.7139627019	fuzzy variables
0.7139592733	inferencing
0.7139458690	neurocognitive
0.7139414774	program code
0.7139399549	researcher
0.7139376985	security measures
0.7139323167	last
0.7139250870	fieldbus
0.7139240066	illumination variations
0.7139235257	lastfm
0.7139206807	distinct vertices
0.7139029923	hydro
0.7138952026	minimum support
0.7138943816	trainer
0.7138859936	policy specification
0.7138845113	complementary
0.7138784660	fermentation
0.7138575660	accurate
0.7138480015	shi
0.7138464664	usability problems
0.7138449963	denial of service attacks
0.7138438797	cybernetic
0.7138378170	guidance
0.7138202682	kernelized
0.7138193566	radiometer
0.7138122947	phase error
0.7138093767	service based applications
0.7138091788	years ago
0.7138062548	local maxima
0.7138019736	probleme
0.7137983244	multimode
0.7137933843	edge weight
0.7137922068	ran
0.7137893684	rocks
0.7137780355	electromyography
0.7137658140	educating
0.7137347423	semi structured interviews
0.7137280964	noise levels
0.7137277149	terahertz
0.7137259535	single point
0.7137193141	centered
0.7137117642	resource allocation strategies
0.7136822568	size distribution
0.7136759139	demons
0.7136667910	nonsymmetric
0.7136630774	blueprint
0.7136620970	frontiers
0.7136532337	students learn
0.7136513710	widely believed
0.7136369331	link level
0.7136360879	entropic
0.7136301653	low data rate
0.7136284373	averaged
0.7136200871	block coding
0.7136052559	wrapping
0.7136026972	measurement uncertainty
0.7135922229	teleoperated
0.7135857549	definite
0.7135793367	dolphin
0.7135742352	vibrotactile
0.7135635433	fear
0.7135606808	peg
0.7135585547	fairness
0.7135566672	maximisation
0.7135562911	blackboard
0.7135528554	isometric
0.7135463848	rigorous
0.7135384829	ward
0.7135366930	botnet
0.7135343172	subliminal
0.7135325507	tooling
0.7135166756	radiography
0.7135162694	n0
0.7135106322	numerical computation
0.7135004832	heterogeneous network
0.7134914963	diaphragm
0.7134907865	orthogonal channels
0.7134752280	recommendations
0.7134709737	navigation systems
0.7134650284	bilevel
0.7134515400	empirical validation
0.7134430559	generally
0.7134347500	geometry
0.7134303150	primer
0.7134265872	direct transmission
0.7134261152	current consumption
0.7134153425	cepstrum
0.7134115913	short distance
0.7134009778	enabled
0.7133847542	reference clock
0.7133711121	tactical
0.7133598935	textual content
0.7133537831	multiplexer
0.7133533064	critical graphs
0.7133526624	deg
0.7133469667	widget
0.7133444554	mesoscale
0.7133125133	methode
0.7133090735	compensation scheme
0.7133033095	protection scheme
0.7133006491	dependable
0.7132864412	initial value problem
0.7132827671	architecture
0.7132687309	neurophysiology
0.7132643907	logo
0.7132522221	base layer
0.7132499979	parallel robot
0.7132289302	referee
0.7132107931	elitist
0.7132042646	discard
0.7131941035	tourist
0.7131899354	position control
0.7131822292	irreducible
0.7131700524	layering
0.7131688054	loop
0.7131531138	authorisation
0.7131479542	human intelligence
0.7131375964	recognising
0.7131355064	degree of freedom dof
0.7131267239	correlation structure
0.7131169289	landmark based
0.7131011317	accumulation
0.7130808088	disambiguating
0.7130689002	acoustical
0.7130465287	ip multimedia
0.7130408120	argumentative
0.7130362085	popularly
0.7130333287	mean squared error
0.7130243208	protecting
0.7130237079	drifting
0.7130150981	sandbox
0.7130134775	polyphase
0.7130056854	total transmission power
0.7129887685	regular grid
0.7129860704	neuroevolution
0.7129824655	parallelisation
0.7129823839	averaging
0.7129761852	natural image
0.7129739683	minmax
0.7129582890	edition
0.7129456856	wimax mesh
0.7129446467	inner
0.7129390281	absent
0.7129372976	multipartite
0.7129317471	involvement
0.7129215062	initialize
0.7128768126	allied
0.7128656163	xy
0.7128607255	duplexing
0.7128507970	high resolution image
0.7128500090	ultralow
0.7128434871	heterogenous
0.7128363965	surveillance applications
0.7128303499	laying
0.7128236693	node disjoint
0.7128184443	recognition
0.7128181601	spatio temporal patterns
0.7128141126	preface
0.7128032233	formalizing
0.7127900427	feature maps
0.7127848338	noninvasive
0.7127802662	orchestrations
0.7127788104	concept learning
0.7127729737	context switching
0.7127664199	intensional
0.7127622242	urn
0.7127585869	charge
0.7127016339	coevolutionary
0.7126997365	nxn
0.7126440194	compromising
0.7126435501	warning
0.7126322563	incompressible
0.7126303297	variance
0.7126194751	similarity
0.7126172221	certification
0.7126123814	computers
0.7126038528	fault
0.7125927340	universal mobile telecommunications system
0.7125776626	symbiotic
0.7125695653	cerevisiae
0.7125663190	loose
0.7125650792	matrix equation
0.7125634426	grab
0.7125594937	omics
0.7125337953	stateless
0.7125311056	hybridizing
0.7125092166	water
0.7125028895	routing strategy
0.7125024231	attack graph
0.7124978873	similarly
0.7124825524	remark
0.7124471613	texture
0.7124394680	elder
0.7124367967	techno
0.7124318871	score function
0.7124144767	protection mechanisms
0.7124121754	cyclostationary
0.7124036895	interpretive
0.7123775506	frog
0.7123761372	bootstrapping
0.7123741551	high intensity
0.7123567864	template
0.7123351182	cine
0.7123223343	genome wide association
0.7123211015	hot topic
0.7123171387	worlds
0.7122825911	thereby
0.7122477430	multiantenna
0.7122416030	telehealth
0.7122393953	multisensor
0.7122341993	electromechanical
0.7122222474	deficiency
0.7122135527	follower
0.7122057255	compression efficiency
0.7121996674	eta
0.7121921709	mammogram
0.7121896779	zero knowledge proofs
0.7121795709	constantly changing
0.7121700542	grassland
0.7121698023	timelines
0.7121636874	tiled
0.7121588246	computational aspects
0.7121446388	econometrics
0.7121380237	synthetic aperture radar sar images
0.7121327567	displays
0.7121300574	definability
0.7121272466	delay fault
0.7121262432	action
0.7121180402	dermoscopy
0.7121148317	maximin
0.7121029114	utilisation
0.7120946177	chunking
0.7120860101	auction
0.7120829831	playability
0.7120814496	binary relation
0.7120777908	data aided
0.7120724166	norm
0.7120689538	loop free
0.7120685387	analytical solution
0.7120674811	palette
0.7120673029	ages
0.7120642766	rails
0.7120501865	semg
0.7120386757	benchmarking
0.7120358232	multi point
0.7120315092	accumulative
0.7120062911	reroute
0.7120061383	beyond
0.7120057672	mesh topology
0.7119921145	microcontrollers
0.7119921145	anatomically
0.7119796700	additively
0.7119575610	blink
0.7119547060	manipulating
0.7119335844	oriented computing soc
0.7119244612	phishing
0.7119120954	ventricle
0.7119113607	songs
0.7119017072	early design
0.7118965800	inverter
0.7118920122	educational tool
0.7118837586	pebble
0.7118784257	parameterization
0.7118759506	negatives
0.7118677972	management
0.7118605810	empirical
0.7118561428	spoke
0.7118551784	oversampled
0.7118518155	emg signal
0.7118465529	networking environments
0.7118151880	tos
0.7118074031	reconciliation
0.7118072001	avoid collisions
0.7117973479	orthogonalization
0.7117950468	talk
0.7117927809	mean shift
0.7117805705	rats
0.7117651988	dialectical
0.7117589225	tire
0.7117417233	synthetically generated
0.7117377210	conventional
0.7117339925	sampling
0.7117337173	mimetic
0.7117242176	continuous time markov
0.7117163779	pavement
0.7117152456	vector machines
0.7117150096	visibly
0.7116974677	lips
0.7116970770	local
0.7116953460	enumerate
0.7116904994	noninterference
0.7116851678	security awareness
0.7116842174	fixpoint
0.7116823502	mobile service
0.7116790617	itemsets
0.7116785640	data confidentiality
0.7116766103	pyramid
0.7116754786	apoptosis
0.7116658273	sandwich
0.7116630153	loss probability
0.7116600125	subroutines
0.7116553808	pirates
0.7116377390	dass
0.7116371084	squaring
0.7116184952	optimization problem
0.7116118103	low gain
0.7116016802	deferred
0.7115841423	access control model
0.7115675596	tempo
0.7115485451	e voting
0.7115323903	bionic
0.7115256316	ob
0.7115239288	aprendizaje
0.7115184856	regulator
0.7115042170	skill
0.7114902610	twins
0.7114829216	lived
0.7114735340	microelectronics
0.7114717421	ballast
0.7114662183	average throughput
0.7114612030	choreography
0.7114587699	mon
0.7114443104	steganalysis
0.7114440191	morpho
0.7114325582	surveillance cameras
0.7114315934	power analysis
0.7114290185	cockpit
0.7114267046	landscape
0.7114082144	factoring
0.7114072266	angiographic
0.7114034273	alliances
0.7113949648	delegating
0.7113896595	sharable
0.7113853534	collocations
0.7113727866	vep
0.7113711121	ternary
0.7113677074	space diversity
0.7113656842	uni
0.7113642858	f
0.7113509729	compartmental
0.7113442524	transportation network
0.7113365347	framed
0.7113320521	convolutive
0.7113306260	personalization
0.7113273790	information science
0.7113176213	mode decision algorithm
0.7113138983	subjective tests
0.7113088834	upsets
0.7112988169	previously unseen
0.7112826741	previous version
0.7112823122	metagenomic
0.7112779370	reservation based
0.7112747689	huxley
0.7112708386	shake
0.7112644335	ieee 80211 dcf
0.7112459145	rise
0.7112449572	surprisingly
0.7112438909	complementation
0.7112438909	atlases
0.7112379360	multiattribute
0.7112367269	spectroscopic
0.7112345761	administrative
0.7112306984	parallelizing
0.7112306984	boosted
0.7112273504	service based systems
0.7112201929	inspire
0.7112179538	accountable
0.7112179538	dollar
0.7111925919	statechart
0.7111835580	randomly selected
0.7111760737	activity theory
0.7111757481	inverting
0.7111434469	coded video
0.7111422154	playful
0.7111229020	repudiation
0.7111170298	sociotechnical
0.7111115022	biometrics
0.7111068559	brief
0.7111055046	opportunity
0.7111029956	precoder
0.7110723717	transformation languages
0.7110703472	multiplicity
0.7110662503	unstructured peer to peer
0.7110648325	large scale systems
0.7110468319	seabed
0.7110463504	ambidexterity
0.7110436782	uncertainty principle
0.7110348328	compaction
0.7110250342	dexterous
0.7110192423	neo
0.7109962224	insert
0.7109910004	research communities
0.7109837834	sample points
0.7109802833	orphan
0.7109713127	categorical
0.7109698276	reasoner
0.7109624644	desynchronization
0.7109514828	rerouting
0.7109318194	synchronizer
0.7109222080	surveying
0.7109190349	corpora
0.7109097993	dis
0.7108982934	auxiliary
0.7108723384	batteries
0.7108722958	optimisation problem
0.7108716774	recoding
0.7108696803	judicious
0.7108626289	biomedical text
0.7108625801	security assessment
0.7108618358	multiplexers
0.7108595223	microarray
0.7108553417	calibrating
0.7108434532	interrupts
0.7108396587	iphone
0.7108295233	aperture
0.7108173456	symptom
0.7108158487	plants
0.7108087271	revisited
0.7107982937	fuzzy pid
0.7107973479	magnification
0.7107876110	placing
0.7107873465	thermally
0.7107848662	mortality
0.7107825619	disabilities
0.7107791073	modified
0.7107786150	reluctant
0.7107640497	unbiased
0.7107414355	writing
0.7107376643	explosive
0.7107328876	autodock
0.7107215120	nonideal
0.7107171144	signaling
0.7107080640	volatility
0.7107072920	puts forward
0.7107028998	misbehavior
0.7106845975	orient
0.7106619800	optimality
0.7106562093	quadratic lyapunov
0.7106549072	n
0.7106404994	factorisation
0.7106342674	por
0.7106295668	interdomain
0.7106295668	stealthy
0.7106249206	shape features
0.7106231187	minimization problems
0.7106089165	resequencing
0.7106069288	keyframe
0.7106043535	dual channel
0.7105965144	classification task
0.7105880529	facade
0.7105812480	discretionary
0.7105593414	self organization
0.7105446570	neck
0.7105381609	digital maps
0.7105337811	winners
0.7105323903	quantiles
0.7105301436	automaton
0.7105220823	propagator
0.7105166756	unimodular
0.7105041922	professional
0.7105026838	hypervisor
0.7105012291	prolonging
0.7104730111	mk
0.7104727007	monaural
0.7104568080	e1
0.7104444373	hologram
0.7104409724	crowds
0.7104387734	context
0.7104278265	bubbles
0.7104205486	nakagami m fading
0.7104176569	membrane
0.7104163978	kg
0.7104154475	access interference mai
0.7103993588	classification methods
0.7103960996	cyclostationarity
0.7103887740	exclusive
0.7103827773	timeout
0.7103775636	machinima
0.7103755059	conflict
0.7103587477	keen
0.7103566107	schemas
0.7103538066	eat
0.7103513863	orthogonal frequency division multiplexing ofdm systems
0.7103469350	aus
0.7103390145	timetable
0.7103344756	proposons
0.7103244737	production process
0.7103124830	visualisation
0.7102981862	search interfaces
0.7102975497	epidemic model
0.7102973738	inline
0.7102907188	developer
0.7102772897	compensated
0.7102439241	traffic signal
0.7102382449	mediation
0.7102233932	restored
0.7102179544	rectifiers
0.7102140145	professors
0.7102099926	engaging
0.7102056180	uma
0.7101965443	pre
0.7101918549	eikonal
0.7101836861	intra cell
0.7101764616	feet
0.7101431582	estimation accuracy
0.7101295413	sophistication
0.7101051132	frequent
0.7101013358	k
0.7100953067	power constraints
0.7100912871	initial state
0.7100673106	vision
0.7100662201	managerial
0.7100596709	readable
0.7100567167	biomedicine
0.7100566904	decodable
0.7100521614	extended
0.7100282225	first
0.7100250738	handshake
0.7100149164	stabilized
0.7100148261	accident
0.7100086549	calculating
0.7099970725	schizophrenia
0.7099857977	balance
0.7099804177	conferences
0.7099775462	allocation strategies
0.7099764473	heterogeneous sensors
0.7099740345	fertilization
0.7099689143	previously
0.7099677617	distributed antenna
0.7099606052	detection
0.7099560892	mashup
0.7099292583	test coverage
0.7099162538	mathematical expression
0.7099024685	national research
0.7099020798	notoriously difficult
0.7098998638	allowable
0.7098978899	blob
0.7098768126	neurofuzzy
0.7098768126	loans
0.7098768126	geostatistical
0.7098768126	outranking
0.7098734036	solo
0.7098454995	multiword
0.7098433648	interferometer
0.7098400684	credential
0.7098355699	combing
0.7098348643	recurrent network
0.7098299610	physiological
0.7098265590	absence
0.7098247515	flat
0.7098157106	participants
0.7098113055	indexation
0.7098017068	patient
0.7097985341	psycho
0.7097799566	uncapacitated
0.7097641384	pass filter
0.7097604859	gist
0.7097439250	subgraph problem
0.7097421236	implicated
0.7097384275	spatial distribution
0.7097337571	straight
0.7097325422	plant
0.7097286838	encapsulated
0.7097122410	miners
0.7096935108	multistate
0.7096721740	uniform
0.7096568556	industrial applications
0.7096477911	mobicast
0.7096297690	additionally
0.7096252904	talks
0.7096017385	rheological
0.7095828122	multicast communication
0.7095679553	session
0.7095645566	cure
0.7095607974	particle
0.7095387141	bounded
0.7095356136	microrna
0.7095354651	batching
0.7095305782	bad
0.7095089246	top
0.7094953601	fostering
0.7094952994	simulation
0.7094787183	macromolecular
0.7094714192	indexing scheme
0.7094685619	glaucoma
0.7094611657	sheds
0.7094500130	prioritisation
0.7094500130	urbanization
0.7094496831	wie
0.7094311794	tether
0.7094278981	complexity measures
0.7093811973	lmi based
0.7093723308	single sensor
0.7093641686	semiparametric
0.7093454136	superconvergence
0.7093426650	head
0.7093373533	empirical analysis
0.7093323747	non functional requirements
0.7093077396	program
0.7093046122	bitrate
0.7092972856	biosensor
0.7092917319	xi
0.7092868799	imagevideo
0.7092808481	statistical model
0.7092655514	provider
0.7092510701	compact representation
0.7092266075	broadly
0.7092245910	corn
0.7092172138	acknowledging
0.7092124793	recovery mechanism
0.7092089681	degeneracy
0.7092078460	multiphase
0.7091904454	limited memory
0.7091838676	quality metric
0.7091828886	affordable
0.7091740896	singularly
0.7091714341	adhoc
0.7091659248	set point
0.7091630109	ping
0.7091628141	gapped
0.7091386954	macroscopic
0.7090899924	quiz
0.7090800169	homogenization
0.7090766088	invest
0.7090691030	windowing
0.7090643380	centerline
0.7090618351	filler
0.7090572574	wir
0.7090559134	brick
0.7090474263	camera based
0.7090455975	immunization
0.7090425962	pneumatic
0.7090419250	pendulum
0.7090340678	poultry
0.7090229878	positron
0.7090205797	foreign
0.7090145815	monetary
0.7090056407	input current
0.7089778914	sharing
0.7089719528	spike timing
0.7089531776	unit length
0.7089342851	uso
0.7089216060	preliminary findings
0.7089119885	unpacking
0.7089119885	guillotine
0.7089088763	block sizes
0.7089066683	convex
0.7088984672	companys
0.7088916103	synergetic
0.7088603689	install
0.7088561052	team performance
0.7088560752	linguistic variables
0.7088488617	class conditional
0.7088426431	meta data
0.7088392427	quasigroups
0.7088317759	generate test cases
0.7088239326	substring
0.7088136946	parallax
0.7088135075	column
0.7088121036	developing
0.7088059302	aggregation functions
0.7088023955	grayscale
0.7087896413	periodic
0.7087787950	hyperelliptic
0.7087772781	sensitive information
0.7087745857	gov
0.7087700865	predictive model
0.7087615649	waveguide
0.7087277132	hearing
0.7087129364	algo rithm
0.7087021614	search
0.7087000327	multimedia documents
0.7086803830	equi
0.7086676954	revenue
0.7086435460	grey model
0.7086430089	hydrology
0.7086330516	designation
0.7085933271	versioning
0.7085821395	solitons
0.7085692489	recherche
0.7085499062	signs
0.7085452208	text independent
0.7085399769	asbestos
0.7085083683	visual basic
0.7084968491	preview
0.7084895733	face detector
0.7084877663	specially designed
0.7084755021	activity monitoring
0.7084711258	concession
0.7084681666	offline
0.7084529106	catalyst
0.7084458521	vol
0.7084386412	commutation
0.7084329657	cross coupled
0.7084278172	biorthogonal
0.7084278172	questioning
0.7084275214	coverings
0.7084242654	um
0.7084201473	infrastructures
0.7084097371	programming
0.7083973723	reprogramming
0.7083958751	elaborating
0.7083955202	clever
0.7083865055	communicates
0.7083859594	evoked
0.7083781157	offloading
0.7083729608	formant
0.7083517385	upsampling
0.7083507991	polymorphic
0.7083450217	extreme
0.7083432846	objective
0.7083344756	modus
0.7083288938	source codes
0.7083261298	stimulated
0.7083168479	met
0.7082852673	assay
0.7082815623	topic
0.7082801121	spanners
0.7082686949	fundamentals
0.7082668837	clique problem
0.7082647615	broad classes
0.7082626047	transfer matrix
0.7082621861	resource
0.7082574873	blur
0.7082548392	digital signal
0.7082486106	volume
0.7082204916	dominant
0.7082124380	pattern analysis
0.7081858984	resource allocation schemes
0.7081611180	meshes
0.7081592311	comprehension
0.7081592219	refining
0.7081547968	downscaling
0.7081498223	maze
0.7081335704	user queries
0.7081172429	traffic demand
0.7081065462	temporary
0.7081021565	tool supported
0.7080988888	specifying
0.7080928540	theoretical
0.7080830669	rate distortion performance
0.7080786052	pipeline
0.7080638407	canceller
0.7080626219	conveyed
0.7080585869	distraction
0.7080580959	condensation
0.7080522283	analogously
0.7080409100	fade
0.7080366816	heads
0.7080307829	21st
0.7080244449	fundus
0.7080159551	safeguard
0.7079950622	treadmill
0.7079946901	devs models
0.7079652704	global optimality
0.7079625580	spatial locations
0.7079525324	relative distance
0.7079512339	skip
0.7079487558	deinterlacing
0.7079473669	computer aided diagnosis cad
0.7079436958	weve
0.7079387531	hedging
0.7079317508	network design problems
0.7079235686	magnetically
0.7079082336	persona
0.7079075251	resultados
0.7078933250	location management
0.7078758727	ink
0.7078634006	idiom
0.7078562003	philosophical
0.7078365860	richness
0.7078256842	multitemporal
0.7078138688	angle
0.7078069645	bimodal
0.7077971616	companions
0.7077907747	crowding
0.7077894602	underdetermined
0.7077549656	introspection
0.7077510401	intuitionistic
0.7077474137	watermarking algorithm
0.7077279147	registries
0.7077268108	kinetics
0.7077035931	clinically
0.7077005331	suffices
0.7076920941	classification
0.7076871583	round
0.7076832474	approx
0.7076754712	imperfect
0.7076656289	gained popularity
0.7076655602	inter node
0.7076533890	case based
0.7076513633	toward
0.7076398541	reflectors
0.7076179393	eighteen
0.7076113302	merger
0.7076082534	licensing
0.7076073899	photoluminescence
0.7076062520	improvement
0.7076039833	multifrequency
0.7076019331	operational efficiency
0.7076014038	embedded
0.7075841466	confronting
0.7075841466	easing
0.7075790758	randomly generated
0.7075739942	hyperchaotic
0.7075694502	t
0.7075602972	behaviorally
0.7075473559	wireless communication networks
0.7075440994	naming
0.7075388560	nonequilibrium
0.7075388560	contouring
0.7075195684	user created
0.7075100314	alphanumeric
0.7075097345	enzymes
0.7075013758	restarted
0.7075013758	breakpoint
0.7074924782	radius
0.7074736228	employment
0.7074681082	inaccuracy
0.7074634310	medication
0.7074497814	next generation sequencing
0.7074030736	saccade
0.7074017702	certified
0.7073967370	searchable
0.7073908424	technically
0.7073892575	modernization
0.7073857892	scalar
0.7073848518	tele
0.7073599991	hose
0.7073534309	wiley periodicals inc j comput chem
0.7073501755	microblogging
0.7073501592	travelling salesman
0.7073450053	regression tree
0.7073392235	linear space
0.7073390145	ellipsoidal
0.7073309902	predistortion
0.7073252664	dip
0.7073219706	localised
0.7073017385	multitouch
0.7073011113	distinction
0.7072986040	scene
0.7072936890	regulated
0.7072905211	arbiter
0.7072901122	ist
0.7072795487	level set based
0.7072756216	amps
0.7072558692	strand
0.7072464937	half
0.7072364488	cardinality
0.7072348541	ein
0.7072272964	corrosion
0.7072177214	cursive
0.7072177214	k0
0.7072096279	categorial
0.7072050478	committees
0.7071968012	composable
0.7071951230	exon
0.7071943324	microassembly
0.7071832107	network motifs
0.7071775310	alter
0.7071504938	updown
0.7071464543	geolocation
0.7071190331	biomarker
0.7071159506	utmost
0.7070936302	weaving
0.7070911710	expansion
0.7070879682	variogram
0.7070874042	document
0.7070817317	coating
0.7070761146	inventive
0.7070743458	compensating
0.7070638965	preparatory
0.7070638965	farthest
0.7070552235	r
0.7070488087	composites
0.7070456953	critiquing
0.7070432129	interface
0.7070307729	equipped with multiple antennas
0.7070005658	intuition
0.7069839221	sociable
0.7069808932	timeline
0.7069780535	crystal structure
0.7069744517	nozzle
0.7069511656	electrophysiological
0.7069502843	occlusion
0.7069460514	orbits
0.7069399435	search interface
0.7069389345	receptor
0.7069387531	lightpath
0.7069155775	iid
0.7069152102	corridor
0.7069143801	phantom
0.7069060104	metamorphosis
0.7069004217	visual quality
0.7068983126	deter
0.7068928189	tolerating
0.7068884842	offered load
0.7068851415	operating point
0.7068771193	halftoning
0.7068591400	configuration space
0.7068486269	secure routing
0.7068425773	epidemics
0.7068399217	automated testing
0.7068398347	radars
0.7068320091	unordered
0.7068276754	realism
0.7068230105	sheet
0.7068120267	impressive
0.7068104216	tractography
0.7068013779	swaps
0.7068013779	revocable
0.7067940188	rescue operations
0.7067643007	worthy
0.7067622498	partner
0.7067410099	arena
0.7066903425	phylogeny
0.7066876569	rotation
0.7066689282	performance metric
0.7066568447	risk
0.7066485321	contests
0.7066451095	reporting
0.7066432241	realistic mobility
0.7066359587	volunteers
0.7066315395	transform
0.7066081522	remanufacturing
0.7066054379	word
0.7065954606	fmri data
0.7065849519	rejuvenation
0.7065821541	snap
0.7065744106	authenticating
0.7065533194	pivotal
0.7065498950	launch
0.7065472298	clipped
0.7065463558	offspring
0.7065416753	peak to average power ratio
0.7065292398	pets
0.7065245552	interpolated
0.7065235529	matcher
0.7065005888	biphasic
0.7064882387	widgets
0.7064860555	clausal
0.7064836662	swarms
0.7064798001	global optimization algorithm
0.7064790035	bath
0.7064618441	continuous monitoring
0.7064610276	col
0.7064554195	natural frequency
0.7064458956	ascertain
0.7064416786	lacking
0.7064034262	dynamic systems
0.7063777098	des
0.7063709343	list
0.7063419374	stereovision
0.7063236545	satisfaction
0.7063122996	surveys
0.7063017294	biosensors
0.7063003689	hindered
0.7062995040	doctors
0.7062792183	flicker
0.7062707058	noise sources
0.7062601157	minimum vertex
0.7062532568	preconditioner
0.7062433728	parameterizing
0.7062227163	taint
0.7062201725	execution paths
0.7062119357	bandpass
0.7062082283	injury
0.7062018910	preposition
0.7061974112	normalized difference
0.7061954370	3g networks
0.7061950327	failover
0.7061905409	ears
0.7061769356	packet sizes
0.7061728045	categorizing
0.7061608897	testability
0.7061597861	message
0.7061564109	simulators
0.7061525303	plus
0.7061517108	photonics
0.7061482594	hybrid logic
0.7061452690	encapsulation
0.7061419080	switched linear
0.7061279041	egg
0.7061245555	diagonal
0.7061228129	qa systems
0.7061221250	male
0.7061177354	deducing
0.7061154897	factored
0.7061067732	office environment
0.7060969138	splice
0.7060875558	weighted least squares
0.7060858894	safer
0.7060805762	mgl
0.7060747652	temporal data mining
0.7060670222	eddies
0.7060655950	blogging
0.7060648673	stems
0.7060612402	speaking
0.7060590256	coins
0.7060500905	effector
0.7060454809	manipulator
0.7060345601	computational models
0.7060279425	codebook
0.7060059816	visual appearance
0.7059809171	component based systems
0.7059708252	machine
0.7059658105	dyslexia
0.7059639630	frequency division multiple access ofdma
0.7059429478	bisimilarity
0.7059170281	leaf nodes
0.7059070162	reward
0.7058899016	equalisation
0.7058865055	seminal
0.7058816579	hits
0.7058548340	information services
0.7058472743	scatterer
0.7058453711	excess
0.7058240638	apt
0.7058030543	passage
0.7057970725	motion estimation me
0.7057917277	tutorials
0.7057892265	minimising
0.7057817267	communication latency
0.7057786579	heterogeneity
0.7057593223	dome
0.7057510243	explanatory
0.7057480603	realities
0.7057396072	high dimensionality
0.7057266025	color information
0.7057127357	mod
0.7057095626	behavioral patterns
0.7057076149	advance
0.7056887830	significant bit
0.7056818304	induced
0.7056771838	ethnicity
0.7056721316	desertification
0.7056605688	synergistic
0.7056590916	transmission scheduling
0.7056353258	biofilm
0.7056332790	empathy
0.7056008923	strokes
0.7055991458	wiring
0.7055748985	switching
0.7055717526	level agreements slas
0.7055626480	e
0.7055581483	sabotage
0.7055544012	predator
0.7055221631	transcriptional
0.7055171941	polynomial time approximation algorithm
0.7055163501	practical
0.7055154068	debugger
0.7054860606	online scheduling
0.7054732851	communication channels
0.7054600977	category
0.7054581882	sanitization
0.7054257758	humidity
0.7054152830	geometrical
0.7054089978	multipurpose
0.7054024557	globally optimal solution
0.7053873244	keypoint
0.7053852648	tailoring
0.7053843923	spectral element
0.7053768218	orthogonality
0.7053736762	interaction
0.7053705005	random
0.7053607477	quality measure
0.7053511823	mask
0.7053497954	low bandwidth
0.7053398552	artery
0.7053385872	microbial
0.7053365937	uterine
0.7053187175	reconstruction
0.7053171013	homecare
0.7053074642	aco algorithms
0.7052976368	spaces
0.7052904277	competitor
0.7052886084	single
0.7052826680	sounder
0.7052687419	smile
0.7052642122	distributional
0.7052597988	ontology learning
0.7052593913	rollback
0.7052520612	ischemia
0.7052492762	programmers
0.7052251629	query point
0.7052001614	progression
0.7051986209	searching
0.7051917077	thresholded
0.7051911481	penetration
0.7051812235	dependence
0.7051751574	workstation
0.7051679510	network infrastructure
0.7051672974	user equipment
0.7051547602	encapsulate
0.7051514599	invite
0.7051277454	servicing
0.7051191094	unexpectedly
0.7051165245	tubes
0.7051103144	analytical models
0.7051076453	exchanging
0.7051027586	multifunctional
0.7051025202	telco
0.7050898059	clock
0.7050637734	object
0.7050469353	evaluator
0.7050376642	automatically extracted
0.7050341466	weigh
0.7050298723	data preprocessing
0.7050251562	large scale networks
0.7050198875	secret information
0.7050112727	upstream
0.7050079935	probabilistic latent semantic
0.7050005702	beads
0.7049874919	basic
0.7049789680	complex scenes
0.7049685326	diversity
0.7049537978	expressiveness
0.7049446286	decode
0.7049432548	transmit and receive antennas
0.7049350913	adoption
0.7049301738	letter
0.7049286650	foresight
0.7049019224	motion generation
0.7048889740	peripherals
0.7048882998	descriptor
0.7048819867	data protection
0.7048626219	encompass
0.7048356728	bundles
0.7048064305	membrane systems
0.7047774400	gmm based
0.7047625271	portability
0.7047568227	raw
0.7047504379	solution concepts
0.7047403778	reference
0.7047361820	pressure sensors
0.7047342852	admission
0.7047298532	network capacity
0.7047236638	dependent setup times
0.7047209370	center frequency
0.7047105330	transmission radius
0.7047100977	workload
0.7047082788	rack
0.7046999408	incoherent
0.7046726205	toric
0.7046726205	passports
0.7046626617	high dimensions
0.7046561108	descriptor systems
0.7046449565	stirred
0.7046260287	budget
0.7046226682	perception
0.7046192130	hybrid model
0.7046127748	speeded
0.7046089058	augmentation
0.7045999408	epidemiological
0.7045746076	geosciences
0.7045515142	ripples
0.7045477251	cavity
0.7045452690	preemption
0.7045413721	linear approximation
0.7045386854	reliability evaluation
0.7045373878	topic modeling
0.7045344903	ap proach
0.7045295875	video decoder
0.7045293971	atomistic
0.7045263608	second
0.7045196938	stairs
0.7045190055	profile
0.7045178177	tomographic
0.7045147514	gentle
0.7045050349	incompleteness
0.7045013739	geoscience
0.7044982115	modularisation
0.7044836065	scaled
0.7044740228	estimation
0.7044331440	collision
0.7044282012	pseudoknots
0.7044138842	remarkably
0.7044129357	b
0.7044073179	video recording
0.7043831408	sprite
0.7043571590	px
0.7043373352	link based
0.7043101611	adolescent
0.7043092236	obtainable
0.7043040700	dependability
0.7042988040	fibers
0.7042898832	fallen
0.7042890732	fades
0.7042865501	problem formulation
0.7042666781	governments
0.7042607244	abundance
0.7042474252	bit energy
0.7042351851	mean square error
0.7042336065	adaptability
0.7042274990	derivation
0.7042167456	cow
0.7042096858	color segmentation
0.7042091661	awards
0.7042091661	echocardiography
0.7042086457	connectionist
0.7042053037	repetitive
0.7041833790	drives
0.7041741114	queueing models
0.7041690812	astrophysical
0.7041595915	user perception
0.7041578247	disjointness
0.7041515061	network on chip noc
0.7041500718	security attacks
0.7041485221	laws
0.7041449916	semantic knowledge
0.7041310597	veracity
0.7041265116	birthday
0.7041242063	quasilinear
0.7041073400	urgent
0.7040817317	terrorist
0.7040752246	linguistic terms
0.7040698048	wetlands
0.7040695686	noise free
0.7040569960	given
0.7040518316	elevation
0.7040404086	80211n
0.7040295990	universal mobile telecommunications
0.7040124839	mild assumptions
0.7040066575	explorations
0.7040020448	noise corrupted
0.7039797876	octree
0.7039738052	distributed teams
0.7039689955	community structures
0.7039611110	unsteady
0.7039572429	irrigation
0.7039519815	nu
0.7039517635	routing mechanism
0.7039455399	attitude
0.7039332123	pipeline architecture
0.7038993854	stable walking
0.7038904602	medical image analysis
0.7038872337	lively
0.7038864119	successive
0.7038596487	datapath
0.7038380807	ergonomic
0.7038338674	approximative
0.7038338674	consolidating
0.7038273256	universe
0.7038173386	modest
0.7038162934	forced
0.7038075053	stimulating
0.7038003445	brightness
0.7037866812	bit string
0.7037756479	multi input
0.7037442077	e business
0.7037148403	low order
0.7037093983	corroborate
0.7036797571	suns
0.7036612129	emulation
0.7036606878	tractability
0.7036591078	positive integer
0.7036470739	smarter
0.7036407396	evaluation
0.7035958482	feeder
0.7035855320	information access
0.7035690177	intonation
0.7035568769	counterexamples
0.7035369873	illuminant
0.7035187279	timetables
0.7035187279	joy
0.7035176614	coalescing
0.7034879374	elders
0.7034830384	maximise
0.7034562656	false false false microsoftinternetexplorer4
0.7034542576	pure strategies
0.7034535613	complex background
0.7034283622	automatically detecting
0.7034233807	tailed
0.7034168532	edge
0.7034163108	genuine
0.7034120127	reconfigure
0.7034119881	proposal
0.7034112460	bloat
0.7034084991	append
0.7034023836	product development process
0.7034021614	networks
0.7033941124	erasing
0.7033938463	accumulator
0.7033921164	accommodation
0.7033888077	add
0.7033800469	compensators
0.7033774386	standby
0.7033735850	notable
0.7033626226	abstractions
0.7033617340	shape
0.7033530361	label
0.7033393555	uninorms
0.7033088034	copula
0.7033030896	failure mode
0.7032994341	internal
0.7032993942	du
0.7032970899	museums
0.7032757439	average latency
0.7032722875	prop
0.7032700923	meat
0.7032639820	caffeine
0.7032623463	weighting
0.7032449489	currently
0.7032438690	looping
0.7032435945	breadth
0.7032313824	careful
0.7032090949	preorders
0.7032049485	diameter
0.7031622398	ou
0.7031544172	granulation
0.7031544172	handlers
0.7031490815	game played
0.7031485296	daunting task
0.7031484577	cal
0.7031360458	degenerated
0.7031256325	faster convergence
0.7030981337	neuromuscular
0.7030944127	healthcare applications
0.7030788344	optimal solution
0.7030781086	eligibility
0.7030763902	timestamps
0.7030760225	socio
0.7030522218	perturbation theory
0.7030510518	depends heavily
0.7030493510	rate constants
0.7030467016	culturally
0.7030452705	une
0.7030388914	nuclei
0.7030379318	trajectory
0.7030369538	episode
0.7030310105	arrival rates
0.7030291510	multigrid
0.7030210230	cortical regions
0.7030198741	wall shear
0.7030101837	functionally
0.7029949292	redefine
0.7029946400	pub
0.7029872456	contrastive
0.7029818006	compensates
0.7029744450	installation
0.7029731000	diagnostics
0.7029709542	sentential
0.7029622986	rescaling
0.7029566206	stateful
0.7029541843	ads
0.7029360609	reconstruction method
0.7029307390	burst switching obs
0.7029276942	bot
0.7029186980	low area
0.7029033538	ad hoc routing
0.7028987659	prismatic
0.7028987659	shortcut
0.7028967051	immobilization
0.7028794285	isometry
0.7028746369	adaptive modulation and coding amc
0.7028730698	fans
0.7028641223	pre computation
0.7028621684	selfishness
0.7028339277	asynchrony
0.7028294708	hubs
0.7028265116	articulating
0.7028251309	2nd
0.7028234779	ranking algorithm
0.7028149549	inspiration
0.7028026344	morphogenesis
0.7027938788	manycore
0.7027888376	analysis tool
0.7027645684	webpage
0.7027640881	seeding
0.7027612435	peptides
0.7027588243	heuristic methods
0.7027452236	translucent
0.7027433840	selectivity
0.7027006614	exchange
0.7026936168	dif
0.7026901118	schemata
0.7026815306	k nearest neighbor knn
0.7026780230	serving
0.7026727587	typically
0.7026344654	summarizer
0.7026344654	thermoelectric
0.7026266011	past
0.7026056567	sway
0.7025991249	action potentials
0.7025951522	monochromatic
0.7025858756	volatile
0.7025689051	extensions
0.7025597591	subjectivity
0.7025393238	reaction networks
0.7025290830	handicapped
0.7025281072	genetic networks
0.7024845715	suites
0.7024783113	municipality
0.7024751569	evaluations
0.7024685356	broadside
0.7024525737	minimax
0.7024456833	runtime environment
0.7024376618	powers
0.7024333075	resort
0.7024291932	parametric uncertainty
0.7024192501	infection
0.7024087920	investment
0.7024087472	dimensionality reduction methods
0.7023966592	strive
0.7023938427	migrate
0.7023796980	polyhedron
0.7023502192	combiner
0.7023239373	squares
0.7023162765	committed
0.7023160407	industrial environments
0.7023124919	core
0.7022613924	construction
0.7022448566	image regions
0.7022344251	traffic demands
0.7022333243	aggressor
0.7022312026	communication network
0.7022192286	numeric
0.7022159423	chip area
0.7022036540	justifications
0.7022030334	opaque
0.7021856584	high profile
0.7021811011	percept
0.7021648910	spatial frequency
0.7021646278	bone
0.7021386555	classification method
0.7020847822	function calls
0.7020705787	scalable distributed
0.7020672437	optional
0.7020452690	tableau
0.7020012671	infinitesimal
0.7019922533	fatigue
0.7019860536	partitional
0.7019751033	trimming
0.7019740459	collapsed
0.7019537062	slot
0.7019530492	anchored
0.7019479234	requirement analysis
0.7019302659	animated
0.7019289808	videoconferencing
0.7019125586	software requirements
0.7019107309	widely deployed
0.7018749976	pj
0.7018749409	specification
0.7018661917	illustration
0.7018660696	approximation algorithm
0.7018558502	feeling
0.7018431857	promoting
0.7018407690	bootstrapped
0.7018182369	melodic
0.7017947035	quantifier free
0.7017943546	guest
0.7017790513	battlefield
0.7017771758	quickest
0.7017700082	realising
0.7017619950	lim
0.7017588531	submit
0.7017530330	handoff scheme
0.7017486736	resource contention
0.7017482134	sensor arrays
0.7017478588	blobs
0.7017406843	steady
0.7017342353	ridgelet
0.7017101795	oft
0.7017078567	mutations
0.7017062010	historical
0.7016965075	control design
0.7016887671	inventories
0.7016810993	video multicast
0.7016735567	hint
0.7016710552	human pose
0.7016654584	snow
0.7016643701	tensor based
0.7016636541	bypass
0.7016597236	whitening
0.7016576277	power constrained
0.7016489808	constructor
0.7016399814	experiences
0.7016331623	preconditioning
0.7016294285	charting
0.7016264983	prune
0.7016139196	concluding
0.7016137612	software faults
0.7015887825	shadowed
0.7015887825	bimanual
0.7015887825	zebrafish
0.7015655844	interval type 2 fuzzy
0.7015522950	grammar based
0.7015485963	quantum systems
0.7015434899	idempotent
0.7015326270	closed form solution
0.7015290315	hackers
0.7015212090	design
0.7014951202	domain specific modeling
0.7014919932	keyword
0.7014913809	femtocell
0.7014855852	decoy
0.7014563379	based anomaly detection
0.7014558563	self assembly
0.7014402932	flocking
0.7014200956	nanoparticle
0.7014177892	zoomable
0.7014174754	minute
0.7014165581	ancestral
0.7014059034	perceptions
0.7013975320	tolerance
0.7013749786	manipulation
0.7013664957	binarization
0.7013635913	fused
0.7013584864	output tracking
0.7013537544	alike
0.7013381566	experimental
0.7013379591	personalised
0.7013136539	noncoherent
0.7013124215	initial value problems
0.7013073051	naive
0.7012849511	storage
0.7012543550	wellness
0.7012226065	metaheuristics
0.7012138568	disfluencies
0.7012138035	technologys
0.7012085303	spatialized
0.7011834376	assure
0.7011833499	computational modeling
0.7011827539	judged
0.7011779829	season
0.7011757930	upwelling
0.7011555351	machine code
0.7011471045	negative
0.7011467016	neurophysiological
0.7011454745	dimensional feature space
0.7011169512	keyboard
0.7011061025	spaced
0.7010844125	transducer
0.7010728547	worldwide
0.7010608068	unaware
0.7010593953	circ
0.7010537190	sudden
0.7010483645	elegans
0.7010451056	modularized
0.7010408095	coordinate
0.7010394055	broadcast protocol
0.7010387322	research papers
0.7010263153	interoperation
0.7010043333	transmitter
0.7009866470	compression rate
0.7009786265	compression techniques
0.7009763487	network performance
0.7009756354	computationally expensive
0.7009736762	software
0.7009706329	reply
0.7009464461	reachability problem
0.7009258762	insiders
0.7009032074	figures
0.7008968093	batched
0.7008954038	satisficing
0.7008873371	transistors
0.7008739339	association analysis
0.7008738274	contaminated
0.7008696876	iconic
0.7008632890	high frame rate
0.7008508346	stress distribution
0.7008444533	librarians
0.7008415506	normally
0.7008335205	rep
0.7008292772	tip
0.7008227700	referral
0.7008225966	locating
0.7008097305	fin
0.7008088602	exposure
0.7007981087	attribution
0.7007721511	humor
0.7007660966	linear least squares
0.7007658544	lexical features
0.7007648434	coupling
0.7007460920	boys
0.7007435989	self organized
0.7007302751	loaded
0.7007235875	comments
0.7007137305	flexure
0.7007085303	sparsification
0.7007085303	rescoring
0.7006898419	nowadays
0.7006796705	disorders
0.7006767940	virtual agent
0.7006508965	minds
0.7006507854	convergent
0.7006498226	considering
0.7006475666	security testing
0.7006448218	realtime
0.7006440205	shift
0.7006424965	aside
0.7006352691	spectrometry
0.7006264085	noncontact
0.7006230014	wellbeing
0.7006048551	selection strategies
0.7006033968	designer
0.7005911553	thickness
0.7005861394	plotting
0.7005840679	overlapping
0.7005747519	preprocessing stage
0.7005685821	semiautomatic
0.7005542841	undoubtedly
0.7005542841	equipping
0.7005504311	prototypical implementation
0.7005462393	variability
0.7005358554	responder
0.7005288268	pause
0.7005171627	unfolding
0.7005081761	knowledge construction
0.7004827879	throughput degradation
0.7004806371	dispersive
0.7004697560	analysis
0.7004684815	countering
0.7004582966	margin
0.7004454018	opamp
0.7004200956	fragility
0.7004200956	unsaturated
0.7004166386	marks
0.7004108171	equalized
0.7004043836	indistinguishable
0.7004019018	upper limit
0.7003892463	modulators
0.7003819314	competitions
0.7003739884	trustworthy
0.7003581435	nonstandard
0.7003143797	portions
0.7002964467	chinese remainder
0.7002883703	neuroanatomical
0.7002883703	aneurysms
0.7002627993	practical issues
0.7002599887	aspect
0.7002465388	reconfigurable systems
0.7002401021	ready
0.7002295762	hemispheric
0.7002279515	source relay
0.7001969374	chopping
0.7001969374	phenol
0.7001860936	automorphisms
0.7001818425	repairing
0.7001798991	pointcut
0.7001714018	homeostasis
0.7001696690	reproduction
0.7001671047	text analysis
0.7001547125	information gain
0.7001510047	cylinder
0.7001423483	bots
0.7001423179	hollow
0.7001372716	repeaters
0.7001194036	firm
0.7001154110	fuzzy random
0.7001088701	contention
0.7000968855	destined
0.7000949059	despite
0.7000909286	infrastructure
0.7000790860	completeness
0.7000719257	control packets
0.7000469873	connectors
0.7000469339	endowed
0.7000398434	centering
0.7000345960	upper
0.7000201018	ultimate
0.7000047475	multitask
0.6999810490	inscribed
0.6999788710	extension
0.6999425072	exercise
0.6999381314	nonsmooth
0.6999312755	clustering quality
0.6999009337	deterioration
0.6998994869	transcript
0.6998821615	theoretical foundation
0.6998731309	bounce
0.6998548600	normalised
0.6998524568	assuring
0.6998497489	dissipative
0.6998387825	rostering
0.6998376009	deciphering
0.6998313833	spectral resolution
0.6998178337	communities
0.6998115116	depending
0.6997965375	temporal filtering
0.6997923319	accidents
0.6997763296	least squares
0.6997506677	scatterometer
0.6997506677	interorganizational
0.6997492225	subgraphs
0.6997472361	dbm
0.6997408126	iterative soft
0.6997330561	negative examples
0.6997147653	seams
0.6997033898	fungal
0.6997033898	throttling
0.6996769331	secret
0.6996194041	shadows
0.6996177197	quadrilateral
0.6995864288	oh
0.6995829046	shoe
0.6995670149	forecasting accuracy
0.6995471655	secured
0.6995179871	manifold
0.6995095327	interval type 2 fuzzy logic
0.6995006725	block transmission
0.6994899251	dialogues
0.6994826990	pool
0.6994496998	finiteness
0.6994496998	vanish
0.6994496998	misconceptions
0.6994456298	downloading
0.6994455966	anatomical
0.6994440634	b splines
0.6994352055	auction mechanism
0.6994288252	transmitted symbols
0.6994217937	test execution
0.6994141093	distributed generation
0.6994030864	sensor measurements
0.6993989315	sound
0.6993955146	simultaneous optimization
0.6993796164	traffic matrix
0.6993698238	formal definitions
0.6993634539	rekeying
0.6993439052	multiple
0.6993308199	perishable
0.6993260450	charging
0.6993193869	here
0.6993110714	spillover
0.6992930924	firewalls
0.6992801829	spots
0.6992710839	orientated
0.6992603764	diffusions
0.6992484479	innovative
0.6992263548	pragmatics
0.6992250318	route
0.6992174599	lognormal
0.6992018740	service engineering
0.6991984902	virtual cluster
0.6991925837	alloys
0.6991639077	architectural knowledge
0.6991581055	representational
0.6991550041	frame level
0.6991549723	k means
0.6991057372	single instruction multiple
0.6990887825	thesauri
0.6990880995	laughter
0.6990862311	topography
0.6990775560	reassignment
0.6990629792	quality degradation
0.6990456016	towards
0.6990343809	nest
0.6990028179	anticipate
0.6989990108	flow field
0.6989976833	chains
0.6989888489	connected dominating
0.6989801728	distributed power control
0.6989699640	based
0.6989651493	checkpointing
0.6989516529	recycle
0.6989379728	acoustic signal
0.6989323079	functional decomposition
0.6989151266	conducive
0.6989067294	multiple robots
0.6989046601	nanomaterials
0.6988963165	multivariable
0.6988670198	owl s
0.6988596429	unauthorized
0.6988454806	tamper
0.6988348973	estimation algorithm
0.6988148911	sleeve
0.6988050253	unity
0.6987995220	self efficacy
0.6987994670	forwarding scheme
0.6987814327	most
0.6987766673	dual frequency
0.6987751528	experiment
0.6987645217	write operations
0.6987561237	retailing
0.6987519964	network
0.6987483987	spiking
0.6987348028	recognition rate
0.6987293448	stable set
0.6987097371	comparison
0.6987039382	preparedness
0.6986974422	anonymization
0.6986913762	owner
0.6986888867	crucially
0.6986809601	expressing
0.6986684245	eavesdropper
0.6986549961	client side
0.6986480688	binning
0.6986369959	sampling method
0.6986358403	model checking techniques
0.6986210217	ocular
0.6985945674	unify
0.6985829777	arguably
0.6985602204	parallelize
0.6985599180	ranked list
0.6985574843	mal
0.6985475163	energy usage
0.6985361794	consensus problem
0.6984993550	wavelets
0.6984962428	metabolomics
0.6984962428	stylistic
0.6984910109	pharmaceuticals
0.6984741137	walking robot
0.6984730776	scripts
0.6984703412	population
0.6984683195	oceanographic
0.6984662648	model
0.6984216639	interfacing
0.6983959368	rolls
0.6983873292	shared data
0.6983787101	exhaustion
0.6983769605	regression svr
0.6983709711	software platform
0.6983701121	focused
0.6983676791	wishes
0.6983596184	limited energy
0.6983412280	data integrity
0.6983143823	sweet
0.6982933990	marking
0.6982875455	strategic decision making
0.6982767200	sympathetic
0.6982767200	ionosphere
0.6982767200	halving
0.6982767200	defaults
0.6982592900	redundant
0.6982527189	convolution
0.6982258144	data rate
0.6982174599	dies
0.6981949207	weekly
0.6981861340	delay variations
0.6981561237	torsional
0.6981542626	exchanges
0.6981496302	distributed estimation
0.6981267504	fault models
0.6981227553	ribbon
0.6981192359	train control
0.6981176449	c
0.6981141418	018m
0.6981101357	quadratic assignment
0.6981086729	nucleotide
0.6980874042	link
0.6980822907	revocation
0.6980792065	posets
0.6980730946	opposition
0.6980659733	load current
0.6980646554	separator
0.6980625724	grounding
0.6980623826	cartographic
0.6980528725	trails
0.6980480514	code rate
0.6980432139	sublinear
0.6980329865	transcribed
0.6980007309	hard real time systems
0.6979986429	failing
0.6979978786	trapped
0.6979829777	openness
0.6979749325	cooling
0.6979738098	savvy
0.6979690559	cater
0.6979663483	backing
0.6979633778	frequency synchronization
0.6979469873	modularization
0.6979467142	analytical processing
0.6979457681	symmetrically
0.6979381037	nine
0.6979302457	billions
0.6979135760	getting
0.6978987475	vivid
0.6978826062	lower layer
0.6978721476	plasticity
0.6978704094	frozen
0.6978476758	scopes
0.6978370432	distance matrix
0.6978234173	time division duplex
0.6978212897	membership values
0.6978194120	wanted
0.6978078195	nonlocal
0.6978016487	chronicle
0.6977893488	point distribution
0.6977828329	emulate
0.6977770431	reductive
0.6977770431	nach
0.6977761749	myoelectric
0.6977761129	seawater
0.6977269966	selective fading
0.6976957160	architecture design
0.6976833152	boot
0.6976799458	ent
0.6976728987	training
0.6976645768	interfacial
0.6976645768	catalogs
0.6976645768	vibrational
0.6976328323	nanotubes
0.6975904477	informs
0.6975788140	anticipation
0.6975710924	compressible
0.6975706895	constituted
0.6975704805	class support vector machine
0.6975608068	looked
0.6975445273	contractions
0.6975408095	monitor
0.6975338422	merged
0.6975274331	homologous
0.6975240495	traffic surveillance
0.6974906791	basic operations
0.6974882575	impulse
0.6974881241	framing
0.6974850504	pressing
0.6974311561	random matrices
0.6974017584	wavelet basis
0.6973862116	deterministic
0.6973851761	pareto optimal solution
0.6973808367	routability
0.6973774730	morph
0.6973714745	horizon
0.6973680219	dichotomy
0.6973632325	morpheme
0.6973613030	phone
0.6973479742	notice
0.6973317471	piece
0.6973240235	controlled
0.6973131076	feasibility
0.6973028797	sampling technique
0.6972971575	spectators
0.6972968991	emergency services
0.6972964297	collaborating
0.6972942332	dropping
0.6972924608	autoconfiguration
0.6972857058	personal area networks
0.6972790560	backbones
0.6972544063	steganographic
0.6972494529	hierarchical routing
0.6972390267	emissions
0.6972206524	individual level
0.6972153458	random oracle model
0.6972093287	appeal
0.6972077087	uptake
0.6972000229	voltagefrequency
0.6971908741	composability
0.6971839100	grants
0.6971832685	totally
0.6971790065	intra domain
0.6971736977	mammographic
0.6971694194	synteny
0.6971623410	itemset
0.6971324526	tradeoff
0.6971308367	vasculature
0.6971220854	manufacturability
0.6971220854	peculiarity
0.6970852325	wireless mobile
0.6970843840	global localization
0.6970656810	endoscope
0.6970646554	rasterization
0.6970646554	merchant
0.6970575103	keywords
0.6970377289	product
0.6970308653	intensive
0.6970186461	combination
0.6969804047	producer
0.6969569382	shifted
0.6969453007	openehr
0.6969445768	contradictions
0.6969445768	revelation
0.6969346706	dynamic simulation
0.6969177356	debates
0.6969041741	modifiers
0.6969008253	bicriteria
0.6968896773	resistive
0.6968460542	disruptive
0.6968379716	invasive
0.6968376551	assemblies
0.6968333310	rushes
0.6968320503	older
0.6968207876	attendees
0.6968207876	interim
0.6968176714	cluttered
0.6967913781	closures
0.6967786685	partial occlusions
0.6967774838	unsolicited
0.6967739819	wholesale
0.6967687098	widest
0.6967654784	transformers
0.6967650065	aided design cad
0.6967630656	summarizing
0.6967524582	appropriateness
0.6967486877	silence
0.6967458098	prototypical
0.6967375799	hardware complexity
0.6967344258	reality
0.6967142115	discernibility
0.6966968304	nanowires
0.6966949507	texturing
0.6966917726	object classes
0.6966880953	m
0.6966855867	norm minimization
0.6966851227	multi task
0.6966805957	preprocessor
0.6966805957	fuzzification
0.6966735900	gameplay
0.6966713315	customize
0.6966706293	freshness
0.6966521177	decoding
0.6966348668	commutativity
0.6966314011	rationale
0.6966251393	trends
0.6966049616	hampered
0.6965785070	powering
0.6965708748	global search
0.6965642461	reentrant
0.6965605367	campaign
0.6965499091	proteomic
0.6965292232	unfair
0.6965265194	factorial
0.6965180344	data hiding method
0.6965087737	probable
0.6965035262	cooperative systems
0.6965016178	promoted
0.6965007662	martingale
0.6964978786	substitute
0.6964809101	approximate matching
0.6964687749	soils
0.6964518180	footprints
0.6964423260	ultimately
0.6964394310	complexity classes
0.6964291197	queueing systems
0.6964244660	sealed
0.6964105172	succeeded
0.6964016313	data grids
0.6963976990	adverse effect
0.6963889592	distribution functions
0.6963864119	room
0.6963792332	identifiability
0.6963766910	prospects
0.6963731729	community based
0.6963575772	action sequences
0.6963404679	constant factor
0.6963397983	initially
0.6963359703	maneuver
0.6963237764	bifurcation analysis
0.6963167063	peak performance
0.6963107185	existing
0.6963106087	clinical data
0.6963047655	investors
0.6962739465	measurement campaign
0.6962713993	optic
0.6962705994	ml detection
0.6962696937	resource planning
0.6962508585	detection threshold
0.6962126228	majorization
0.6962116174	comprehending
0.6962116174	systematical
0.6962111181	light emitting
0.6962039382	recollection
0.6962012967	p
0.6962000229	fabricating
0.6961851341	mentoring
0.6961619847	bet
0.6961619445	containment
0.6961497368	findings
0.6961438550	atomicity
0.6961428085	pooling
0.6961288598	bathymetry
0.6961212969	vigilance
0.6961163665	excite
0.6961141360	service request
0.6961090242	cooperating
0.6961049931	characterizing
0.6960905490	modular design
0.6960836512	oligopoly
0.6960785219	selection schemes
0.6960643041	taxonomic
0.6960585494	guessing
0.6960557321	mosaics
0.6960541076	transitional
0.6960514412	eyes
0.6960448610	trapdoor
0.6960358071	substitutability
0.6960085497	802154a
0.6960085497	tems
0.6959892217	regression coefficients
0.6959851750	sat problem
0.6959788337	sensing
0.6959660928	substitution
0.6959621931	drowsiness
0.6959468350	identification method
0.6959466546	precipitation
0.6959192856	perfor mance
0.6959108605	time series forecasting
0.6958957619	classification performance
0.6958950532	pseudonym
0.6958878975	humanoids
0.6958716825	communication technology
0.6958467922	timely
0.6958389362	moving
0.6958341500	routing paths
0.6958328932	sweep
0.6958297857	mono
0.6958214575	speculation
0.6958162554	pivot
0.6958077539	1990s
0.6958028019	interpolatory
0.6957871210	coalgebras
0.6957718376	self stabilizing
0.6957581299	arq protocol
0.6957566115	pattern
0.6957454026	signalling
0.6957296528	control
0.6957230270	graph model
0.6956872585	smooth
0.6956821703	oxide
0.6956731885	pre processed
0.6956533740	cellular processes
0.6956436956	forbidden
0.6956399584	tendency
0.6956350914	reduction
0.6955977428	apparel
0.6955617503	pacing
0.6955573208	visual context
0.6955477019	graph
0.6955438182	computer aided
0.6955418014	channel conditions
0.6955232567	lem
0.6954962340	coexist
0.6954638893	rods
0.6954557728	network simulator ns
0.6954544063	surprise
0.6954533225	willingness
0.6954522691	staircase
0.6954481920	macromolecules
0.6954460503	violating
0.6954436532	pharmacophore
0.6954163108	harmful
0.6954040466	process control
0.6954006445	e0
0.6953918932	creatures
0.6953626514	uml based
0.6953542494	technical
0.6953472909	value added services
0.6953330715	shrinking
0.6953311703	manual
0.6953198434	asking
0.6952997175	helper
0.6952859977	multicomponent
0.6952807662	flavors
0.6952464471	prioritize
0.6952337582	human agent
0.6952139969	based approach
0.6951782266	penalization
0.6951690559	initio
0.6951648610	trimmed
0.6951620755	xml processing
0.6951620598	hand coded
0.6951519807	teachers
0.6951372293	inspiring
0.6951310332	external disturbances
0.6951300842	symbol
0.6951136302	recycling
0.6951103654	physical interaction
0.6951039113	illustrations
0.6950724176	subjective
0.6950572159	search window
0.6950550525	confounding
0.6950407116	bit error rate ber performance
0.6950247368	prior
0.6950095222	object oriented systems
0.6949960431	interpolation scheme
0.6949751630	referenced
0.6949655410	hardness
0.6949652587	illegal
0.6949536374	calculation
0.6949289392	watermark
0.6949044318	evolution
0.6948915330	moreover
0.6948729272	victim
0.6948729056	online news
0.6948554503	panelists
0.6948320181	learning algorithms
0.6948286952	uncoupled
0.6948259211	cell interference
0.6947462902	playout
0.6947153330	key
0.6947043868	fuzzy classification
0.6947018206	cloaking
0.6947011989	nal
0.6946908320	marked
0.6946585627	writers
0.6946476465	geographically
0.6946071286	yet
0.6945951916	neural controller
0.6945819450	boxes
0.6945799096	taps
0.6945778094	multi objective particle swarm
0.6945659939	optimal configuration
0.6945433791	coincidence
0.6944915824	going
0.6944801286	willingness to pay
0.6944680366	material flow
0.6944658459	dispersed
0.6944419528	minimality
0.6944376870	ants
0.6944197138	nested
0.6944041824	intensively
0.6943843520	blind image
0.6943803017	reference sequence
0.6943653526	coplanar
0.6943593806	search direction
0.6943385887	untethered
0.6943317036	density functions
0.6943138269	filter coefficients
0.6943136019	subdivision scheme
0.6943005923	curing
0.6942995628	data cube
0.6942849825	switch
0.6942443892	hide
0.6942437756	name
0.6942305482	s
0.6942201702	paste
0.6942083502	topology
0.6942061819	seniors
0.6942032841	redefining
0.6941946871	supplementary information supplementary data
0.6941862518	retiming
0.6941856981	clothes
0.6941717040	self
0.6941605525	remedy
0.6941282528	threshold based
0.6940953427	coercion
0.6940859082	taxis
0.6940786883	unfold
0.6940765410	rho
0.6940653864	rivals
0.6940628218	insights gained
0.6940270598	future developments
0.6940244954	equivalences
0.6940015335	anticipating
0.6940015335	orchestrating
0.6939877385	freehand
0.6939622541	aesthetics
0.6939593963	reducing energy consumption
0.6939231200	eine
0.6939204676	paraphrases
0.6939185162	embeddable
0.6938747244	interpretation
0.6938646437	dialog systems
0.6938547385	uncertain systems
0.6938262920	ad hoc sensor networks
0.6938125502	experimental verification
0.6938123392	interleaved coded modulation bicm
0.6937942262	point matching
0.6937827940	software tool
0.6937678810	single relay
0.6937606397	snippet
0.6937606228	shift register
0.6937292592	cognitive radio technology
0.6937256776	experimental analysis
0.6937238227	advisors
0.6937149641	exponent
0.6937124763	stepped
0.6937124763	geodesics
0.6937085781	signatures
0.6937008427	multitone
0.6937008427	blinking
0.6936893418	touch interaction
0.6936893087	although
0.6936871956	foil
0.6936788825	frame based
0.6936708491	tackles
0.6936616837	annotated
0.6936569467	there
0.6936512613	et
0.6936460887	multipliers
0.6936432845	public
0.6936132507	starvation
0.6935981150	actuator
0.6935919130	360
0.6935874543	inapproximability
0.6935714796	locomotion
0.6935545818	low power design
0.6935517611	feel
0.6935488730	code coverage
0.6935422533	context aware service
0.6935323387	partitioning scheme
0.6935302611	wireless multimedia sensor
0.6935273144	dealing
0.6935203463	de
0.6935121473	embeddings
0.6935103234	brain networks
0.6935013474	process algebras
0.6934966767	x ray images
0.6934937422	instability
0.6934888626	norm bounded
0.6934817118	pharmacy
0.6934817118	deforestation
0.6934779791	division multiplexing wdm
0.6934531936	spectra
0.6934146763	internet routing
0.6933890143	normal subjects
0.6933751157	thus
0.6933626179	multi relational
0.6933599936	rejection
0.6933405977	high confidence
0.6933385531	resultant
0.6932985095	synchrony
0.6932859977	persuasion
0.6932800241	shields
0.6932749579	detrimental
0.6932665909	architects
0.6932665811	deceptive
0.6932422329	organism
0.6932350747	forward
0.6931929048	paramount
0.6931877385	navigated
0.6931754459	wireless internet
0.6931229783	classification problem
0.6931221170	dissection
0.6931221170	semiotics
0.6931161547	i
0.6931148587	henceforth
0.6931148587	newsvendor
0.6931148587	bioinformatic
0.6931148587	optoelectronic
0.6931148587	controversy
0.6931065518	edge set
0.6930945607	continuous speech
0.6930818428	rendezvous
0.6930665392	shortage
0.6930662115	field trials
0.6930617003	likelihood ratio llr
0.6930376418	pinpointing
0.6930376418	unpublished
0.6930345315	cryptographic primitive
0.6930303882	adjective
0.6930218679	core processors
0.6930129142	eigenspace
0.6930116081	asymmetry
0.6929988252	intermediate nodes
0.6929938501	reconstruction error
0.6929838201	quantization scheme
0.6929724519	lexicographic
0.6929614200	vehicle dynamics
0.6929348912	prolong
0.6929311641	explicit
0.6929153585	substructural
0.6929153585	trainers
0.6929153585	acknowledgements
0.6929153585	modifiability
0.6928963867	post layout
0.6928721170	quadruple
0.6928673426	threshold
0.6928643168	patrolling
0.6928640841	transportation problem
0.6928602778	based admission control
0.6928449768	teams
0.6928354099	service descriptions
0.6928261711	confirmatory
0.6928239861	estimation errors
0.6928165522	after
0.6928069003	fraudulent
0.6927917776	audible
0.6927897333	subjective evaluations
0.6927816058	agencies
0.6927581388	originated
0.6927567810	multiple objects
0.6927508067	break
0.6927500130	forgeries
0.6927498048	average distance
0.6927418789	durable
0.6927324881	navigating
0.6927286744	six sigma
0.6927258322	radiometric
0.6927163017	experimentally verified
0.6927075989	reconstructed images
0.6927068638	modulus
0.6927035553	checkpoint
0.6927017175	intensive applications
0.6926951691	fault detection and isolation
0.6926925754	articulation
0.6926909030	biofeedback
0.6926901206	meshless
0.6926732699	however
0.6926704679	aggregation tree
0.6926692822	linear equation
0.6926691563	polynomial interpolation
0.6926614194	satellite data
0.6926552133	zero knowledge proof
0.6926245920	power conversion
0.6926144095	semirings
0.6926144095	glitches
0.6926144095	persistency
0.6926053148	pet images
0.6925704406	post hoc
0.6925688578	nonidentical
0.6925688578	bookmark
0.6925605850	fragment based
0.6925397888	confidence
0.6925133608	inexpensive
0.6924892898	webpages
0.6924683566	feedback
0.6924612126	subtree
0.6924434624	support vector machine classifier
0.6924365229	agent coordination
0.6924256523	fieldwork
0.6924256523	cyclical
0.6924256523	anonymizing
0.6924193348	magnetoencephalography
0.6924065560	alongside
0.6924046233	science research
0.6923944003	standardized
0.6923769413	hes
0.6923704332	consistency
0.6923454274	online privacy
0.6923395614	119
0.6923253711	ramp
0.6922852062	security challenges
0.6922833404	formal models
0.6922747010	orientation
0.6922664328	driving
0.6922663457	secrets
0.6922574619	user engagement
0.6922523892	plethora
0.6922448132	multiset
0.6922293892	energy distribution
0.6922251248	nondeterminism
0.6922001027	location
0.6921721569	glove
0.6921649524	tis
0.6921543238	highlighting
0.6921492762	standing
0.6921446857	nm cmos technology
0.6921439229	supplement
0.6921326161	semi formal
0.6921320218	reinforcement learning algorithm
0.6921250656	decision making process
0.6921086195	extremity
0.6920935122	adsorption
0.6920845287	later
0.6920792885	practice
0.6920725320	damper
0.6920609182	price
0.6920588861	clickthrough
0.6920028179	formulates
0.6919770653	wireless connectivity
0.6919740967	inexperienced
0.6919440347	twisting
0.6919374552	detector
0.6919104124	estimation methods
0.6919095370	consumer
0.6919079685	advertisement
0.6918862845	chain
0.6918565905	filled function
0.6918537461	routing strategies
0.6918477462	kinesthetic
0.6918439578	barcodes
0.6918247526	quadratic program
0.6918158474	cloud service
0.6918127651	selection
0.6918018665	range search
0.6917896202	combined
0.6917848346	publications
0.6917835455	scoped
0.6917761330	channel bandwidth
0.6917628675	concealed
0.6917618567	lex
0.6917328244	informationsupplementary
0.6917303389	copulas
0.6917024368	cell lines
0.6917023663	anywhere
0.6916997175	decimation
0.6916685167	finite type
0.6916625825	clinical research
0.6916609764	abort
0.6916604430	item based
0.6916492462	spheroidal
0.6916492462	hierarchic
0.6916365706	code fragments
0.6916292128	space time code
0.6916179996	higher degree
0.6916029245	graph classes
0.6915950713	grazing
0.6915950713	scoping
0.6915607167	object model
0.6915579156	shared resource
0.6915576389	tens
0.6915200266	redundantly
0.6915054057	reception
0.6914979827	substrate
0.6914913948	real coded
0.6914856244	traceability
0.6914810448	collaborative environment
0.6914711647	erasure channel
0.6914372170	epsilon
0.6914217651	partially
0.6914123265	subspace analysis
0.6914065560	dimensioning
0.6913701806	voting systems
0.6913468498	flaws
0.6913337571	security privacy
0.6913291605	semantic relation
0.6913168264	fused image
0.6913164105	efficiency scores
0.6913067782	benchmark
0.6912978532	polynomially
0.6912946001	fuzzy time series
0.6912839804	early development
0.6912802690	previously published
0.6912788765	management architecture
0.6912686428	porting
0.6912584565	correspondent
0.6912574303	politicians
0.6912548374	danger
0.6912461884	topographic
0.6912412942	hear
0.6912411647	clustering analysis
0.6912245048	lenses
0.6912195080	java based
0.6912054094	destruction
0.6911986242	interlacing
0.6911794009	residing
0.6911486202	irregularly
0.6911333410	customized
0.6911313304	bear
0.6911298588	data mining technology
0.6911272385	conform
0.6911086195	stepsize
0.6911076301	hypercubes
0.6910940805	path
0.6910843552	allocation policies
0.6910823036	coprocessor
0.6910791430	trusting
0.6910684312	task space
0.6910648474	charged
0.6910482774	target genes
0.6910477462	nonvolatile
0.6910152639	statistics
0.6910142582	image
0.6909954103	depth information
0.6909710622	base
0.6909583179	commodity
0.6909549209	cramer rao lower
0.6909266833	hardware cost
0.6909226736	superimposed
0.6909226736	migrating
0.6909211267	episturmian
0.6909202938	network coding scheme
0.6909197344	pose variations
0.6909155210	uncalibrated
0.6908784078	transformation
0.6908764360	major
0.6908676658	contrasting
0.6908617636	buffer space
0.6908479428	application
0.6908475620	difference
0.6908210415	forcing
0.6908182083	series
0.6908099316	network size
0.6907930126	environmental conditions
0.6907826082	sectional
0.6907382393	theorems
0.6907266314	emission tomography pet
0.6907250687	vulnerabilities
0.6906954572	ill defined
0.6906948915	filling
0.6906698200	grid application
0.6906692248	transport network
0.6906564143	overload
0.6906184566	centrality
0.6906178822	abstract abstract
0.6906085903	assets
0.6905896202	speech
0.6905884963	motor
0.6905736197	multidomain
0.6905647566	degraded
0.6905559969	hard constraints
0.6905305073	variable
0.6905293384	inhibitors
0.6905198815	self tuning
0.6905057406	primary
0.6905024467	truncated
0.6904836761	manuscripts
0.6904809728	risky
0.6904722353	platform
0.6904536766	reinforcing
0.6904497992	integer
0.6904132541	distributed databases
0.6904089813	visual information
0.6904079993	pharmacokinetic
0.6904079993	distrust
0.6904065560	zooming
0.6904033557	care providers
0.6903924616	neglecting
0.6903907672	deal
0.6903738134	high dimensional space
0.6903670145	voted
0.6903624477	deviations
0.6903430387	medial
0.6903355144	minima
0.6903311185	data items
0.6903271307	mobile access
0.6903259592	centres
0.6903177096	obtaining
0.6903149251	playing games
0.6903027430	flexible manufacturing
0.6902967053	search behavior
0.6902810206	scattering model
0.6902779665	re
0.6902413493	human tracking
0.6902280430	feature map
0.6902130028	because
0.6902043581	wizard of oz
0.6901842603	monthly
0.6901719308	design trade offs
0.6901611528	long period
0.6901537797	maintenance
0.6901459645	single letter
0.6901445891	abbreviations
0.6901342642	mul
0.6901285672	j combin theory ser
0.6901216096	feature extraction methods
0.6901049997	computationally inexpensive
0.6901016461	holding
0.6900847319	unseen
0.6900818428	taxonomies
0.6900766862	transponder
0.6900678478	stochastic analysis
0.6900614787	previous
0.6900607107	state space models
0.6900570943	layout design
0.6900473124	whole genome
0.6900458717	aperiodic
0.6900454857	wealth
0.6900288545	fibrillation
0.6900209177	high risk
0.6900108827	accommodating
0.6900067664	restrictive
0.6899907341	development environments
0.6899688351	rather
0.6899508904	sketching
0.6899184641	rewiring
0.6899132759	informacion
0.6899096258	asks
0.6898955183	line
0.6898828236	prosody
0.6898711103	obfuscated
0.6898705095	metallic
0.6898607911	multi core architecture
0.6898408973	linear regression model
0.6898281903	m qam
0.6898206748	backplane
0.6898206748	moderators
0.6898206748	psycholinguistic
0.6898201790	discussing
0.6898157120	ip packet
0.6898117890	unrelated
0.6898087054	single mode
0.6898028296	syntax based
0.6897946344	nulling
0.6897876910	agreements
0.6897819835	werden
0.6897809796	widely recognized
0.6897773063	imagers
0.6897579534	complemented
0.6897496060	theoretically
0.6897167345	picking
0.6897108106	operative
0.6897106851	control synthesis
0.6896874545	reformulated
0.6896672287	multivariate analysis
0.6896634297	flow
0.6896446998	lateral
0.6896302114	smoothness
0.6896177061	successive frames
0.6896052910	transposition
0.6895994542	information quality
0.6895968332	definitional
0.6895865808	course
0.6895606675	utility
0.6895594087	intellectual
0.6895387485	approximation factor
0.6895301882	annealed
0.6895179498	nonlinearity
0.6895128224	total throughput
0.6894994106	extractor
0.6894719158	biomolecular
0.6894714397	power systems
0.6894413724	gain scheduling
0.6894171948	great promise
0.6893840562	offsets
0.6893761226	circuit complexity
0.6893687768	goodness
0.6893585736	option
0.6893483394	booking
0.6893454664	vector
0.6893407634	remembering
0.6893314721	synchronize
0.6893288336	localisation
0.6893225503	atrophy
0.6893149350	silhouette
0.6892388817	market
0.6892331889	ok
0.6892321881	plausible
0.6892285295	squared
0.6891992101	connectivity
0.6891956995	deep space
0.6891716020	minutiae
0.6891526504	alphabet
0.6891502202	immunological
0.6891494869	flying
0.6891301162	action rules
0.6891215046	emissivity
0.6891206058	handy
0.6891175791	publishers
0.6890961189	subsystem ims
0.6890799435	h264avc standard
0.6890759137	calibration technique
0.6890598214	random coding
0.6890533614	leave one out cross validation
0.6890422708	bisimulation
0.6890254068	strengthening
0.6889855486	additive white
0.6889827091	prefetching
0.6889796525	melodies
0.6889780164	readers
0.6889711069	allocations
0.6889566709	adopters
0.6889119617	stamps
0.6888779978	servoing
0.6888762455	interpreting
0.6888402771	rigid
0.6888299299	delay profile
0.6888256684	control points
0.6888005913	shared
0.6887930772	constant rate
0.6887807408	training data
0.6887801869	n grams
0.6887703173	mobile agent based
0.6887683591	aiding
0.6887649010	conical
0.6887333262	node deployment
0.6887231276	additive white gaussian noise awgn channel
0.6887173689	graphs
0.6887056237	ordered weighted
0.6886874545	prohibitively
0.6886408072	linguists
0.6886332896	relighting
0.6886082359	forgetting
0.6886077853	model based development
0.6886024252	extrinsic information transfer
0.6885814265	participant
0.6885666643	newly created
0.6885469265	mirrors
0.6885360748	symmetrical
0.6885355957	precise
0.6885337847	optimised
0.6885157663	interleave
0.6884994106	censored
0.6884934591	distributed heterogeneous
0.6884895571	buffered
0.6884808886	fairness constraints
0.6884799209	linguistic information
0.6884688147	nonuniform
0.6884647545	further
0.6884623294	financial performance
0.6884568393	makespan
0.6884455502	blood cells
0.6884440001	scatterers
0.6884420303	attitudes
0.6884247741	temperature range
0.6884075713	software defined
0.6884042002	digraphs
0.6883922103	semilinear
0.6883849752	optimise
0.6883848201	fatal
0.6883820988	preprocessing
0.6883772851	contractive
0.6883751897	calibrate
0.6883639831	relay based
0.6883516264	mainstream
0.6883403121	shops
0.6883327427	human observers
0.6883161306	design intent
0.6882847533	tcp congestion
0.6882816886	zero moment point
0.6882779846	thinning
0.6882735725	alert
0.6882728490	profound
0.6882663457	assured
0.6882442964	reproducing
0.6882373258	firing
0.6882363060	typical
0.6882121870	technologies icts
0.6882051810	avatars
0.6881848915	copy
0.6881734831	chronological
0.6881713113	gain control
0.6881702902	shorten
0.6881691624	populated
0.6881623576	operand
0.6881475540	severity
0.6881318428	assertion
0.6881078640	task performance
0.6881011741	reference points
0.6881010966	following
0.6881002422	paragraph
0.6880849313	stability condition
0.6880765816	capacity loss
0.6880757814	redesigning
0.6880742041	dvb t
0.6880663127	rms error
0.6880632688	virtual team
0.6880582834	distributors
0.6880455506	hysteretic
0.6880404559	denote
0.6880296020	illumination
0.6880212088	collector
0.6880173426	policy
0.6880165579	worst case performance
0.6879613686	selectable
0.6879552728	obstacle
0.6879515309	carriers
0.6879493378	trace based
0.6879440603	browse
0.6879362454	versatility
0.6879353098	hops
0.6879333549	institutions
0.6879119291	contributing
0.6879053129	traffic characteristics
0.6878998518	reconstruction technique
0.6878771420	terabytes
0.6878771420	philosophers
0.6878696430	nervous
0.6878664695	masking
0.6878582834	airflow
0.6878557023	nighttime
0.6878557023	provinces
0.6878557023	microdata
0.6878557023	chicken
0.6878406975	sided
0.6878320551	read
0.6878176936	inhibitor
0.6877865690	metastasis
0.6877865690	pencils
0.6877663431	noisy
0.6877466457	signal to noise ratios snrs
0.6877288716	ringing
0.6877259087	compensator
0.6877255071	throughput capacity
0.6876628562	resisting
0.6876549530	source signals
0.6876484825	membership
0.6876445209	shade
0.6876410598	far
0.6876346033	feature models
0.6876322739	furniture
0.6876306235	toxic
0.6876277061	humans
0.6876088264	high bit rate
0.6875963782	citations
0.6875818548	maps
0.6875768703	distributed environment
0.6875693604	geo information
0.6875432296	inputoutput
0.6875280985	virtex ii
0.6875248179	negotiating
0.6875210365	holding cost
0.6875199621	fuzzy sliding mode
0.6875119303	web camera
0.6875007645	word of mouth
0.6874851563	gait analysis
0.6874615167	local search algorithms
0.6874577893	multiple mobile robots
0.6874477682	oversampling
0.6874455506	macros
0.6874386556	purity
0.6874375184	allocator
0.6874161536	lets
0.6874003034	artificial immune system
0.6873677267	fraction
0.6873566709	brokers
0.6873419381	rearrangement
0.6873417575	injected
0.6873273536	congestion control algorithm
0.6873264645	health management
0.6873237450	practicability
0.6872911578	task management
0.6872863959	functional magnetic resonance
0.6872771192	confidential
0.6872635213	computational burden
0.6872561016	handovers
0.6872499533	geometric distortion
0.6872218544	bases
0.6872031432	classical
0.6872028935	then
0.6871973646	drift
0.6871972779	houses
0.6871950342	performance indices
0.6871930850	individuality
0.6871600638	rare
0.6871550533	k1
0.6871470462	while
0.6871390715	early 1990s
0.6871250695	drivers
0.6870921322	mutual
0.6870773818	compute nodes
0.6870764343	cingulate
0.6870701289	open problems
0.6870636631	sales
0.6870355066	aggregators
0.6870046758	mimic
0.6869873281	nanoelectronic
0.6869787299	store
0.6869688855	creation
0.6869629750	document management
0.6869555306	m commerce
0.6869548627	explicit knowledge
0.6869492099	since
0.6869223558	our
0.6869119832	recordings
0.6869072788	language recognition
0.6868933128	scanner
0.6868858573	overlays
0.6868831489	vessels
0.6868825548	retaining
0.6868725351	think
0.6868669458	memory
0.6868441995	bifurcations
0.6868312571	power
0.6868266219	regular
0.6868260550	minimal
0.6868179263	key technologies
0.6868021731	demodulator
0.6867821380	informal
0.6867769200	group delay
0.6867669088	assortment
0.6867612256	overhearing
0.6867377458	text
0.6867364845	organization
0.6867191224	network protocols
0.6867106433	wsn applications
0.6867063823	weakness
0.6867008553	voxel
0.6866636225	semantic links
0.6866540361	robust optimization
0.6866078129	irrigated
0.6866010391	single sign on
0.6865975770	depict
0.6865863669	statistical distributions
0.6865819041	finite
0.6865700035	security model
0.6865563035	role
0.6865540842	men
0.6865393361	storing
0.6865313382	global asymptotic
0.6865210204	agility
0.6864957881	constrained nonlinear
0.6864888007	behavioural
0.6864879259	predictor
0.6864612447	highly interactive
0.6864553992	moods
0.6864497182	corrections
0.6864396755	operational
0.6864231524	misconfigurations
0.6864113331	tubular
0.6864055902	bounds
0.6864055371	analysis tools
0.6863987042	interdiction
0.6863899537	physical location
0.6863842789	chemicals
0.6863762724	chips
0.6863615831	hand
0.6863608039	energy
0.6863604642	regularisation
0.6863604642	unlinkability
0.6863604642	counterfeiting
0.6863594646	uwb signals
0.6863219135	replicating
0.6863151339	circumvent
0.6863141736	envelopment
0.6863138831	waves
0.6862561016	graceful
0.6862072654	reciprocal
0.6862062340	rigidity
0.6861665036	makeup
0.6861504958	fault location
0.6861424169	manet routing
0.6861357831	shape recognition
0.6861292151	experimental evidence
0.6861288580	affiliation
0.6861103533	word processing
0.6861003913	bp network
0.6860637763	loosely
0.6860497698	finders
0.6860400768	operations management
0.6860367863	band
0.6860361581	adders
0.6860288545	handful
0.6860174384	design challenges
0.6860065770	capacity allocation
0.6860006137	local context
0.6859891444	repeats
0.6859785029	seven
0.6859772056	multi granularity
0.6859620590	so
0.6859528710	band selection
0.6859497252	rehabilitation
0.6859489408	bloggers
0.6859340914	cascode
0.6859053024	growth
0.6859029164	cooperative mac
0.6858999082	finite alphabet
0.6858975287	underactuated
0.6858886129	upload
0.6858831144	video indexing
0.6858732660	weight
0.6858679944	skeletonization
0.6858642213	parcellation
0.6858624543	safeguarding
0.6858624543	spherically
0.6858596378	a posteriori map
0.6858410441	received signal
0.6858402445	researches
0.6858382331	kurtosis
0.6858367951	pattern detection
0.6858171852	progress
0.6858029435	elementary
0.6857959942	low degree
0.6857853648	short
0.6857850769	traverse
0.6857810880	uncertainty
0.6857766312	diffusion process
0.6857757036	roughly
0.6857589691	research questions
0.6857560415	toxins
0.6857525163	deployment
0.6857436913	stream data
0.6857347926	network processors
0.6857221596	resource constraints
0.6857146704	distance
0.6856843872	interpreters
0.6856774905	resampling
0.6856669834	distributed detection
0.6856595196	curriculum
0.6856408835	research program
0.6856375555	posteriori
0.6856281432	processor
0.6855978788	matrix representation
0.6855928282	polarity
0.6855770053	nonblocking
0.6855764696	environments
0.6855691936	optical communications
0.6855652372	voltage
0.6855630194	gaining
0.6855501563	joystick
0.6855486165	output layer
0.6855440350	survivability
0.6855184980	routed
0.6855117740	measurement accuracy
0.6855110156	maintenance costs
0.6855019074	hexagon
0.6854993764	biochips
0.6854930155	aging
0.6854886845	congruency
0.6854850548	coding mode
0.6854794868	external forces
0.6854764647	undecidable
0.6854557874	text regions
0.6854545236	information granules
0.6854534669	tonal
0.6854456906	temperature
0.6854295322	crossed
0.6854266478	emerging
0.6854179294	mpeg 4
0.6854067408	application oriented
0.6854031516	human identification
0.6854003176	planted
0.6853933216	paradoxes
0.6853878850	irregularity
0.6853754940	halfspaces
0.6853697254	ephemeral
0.6853697254	nodule
0.6853591838	chrominance
0.6853481133	automatic control
0.6853464975	standards
0.6853441784	undersampling
0.6853441784	beaconing
0.6852790219	second order cone
0.6852716897	many
0.6852400880	pervasive systems
0.6852337466	binding mode
0.6852308620	misuse
0.6852302505	in
0.6852281710	single thread
0.6852174603	staging
0.6852072844	non functional properties
0.6852048158	conditioned
0.6851911767	synonym
0.6851911767	altruistic
0.6851783848	partition function
0.6851770820	scaling
0.6851660773	sporadic
0.6851616589	helping
0.6851581980	red green and blue
0.6851469620	silico
0.6851390146	goods
0.6851370526	white gaussian
0.6851365625	elucidate
0.6851240622	alleviated
0.6851136779	truncation error
0.6851025422	intestinal
0.6850783377	periodic tasks
0.6850650616	microphone
0.6850399235	multi spectral
0.6850390017	power loss
0.6850365309	dispensing
0.6850270618	voicing
0.6850155736	generative model
0.6850115688	multiple source
0.6850088834	multi cores
0.6850033227	heights
0.6849784606	stay
0.6849607229	output power
0.6849340914	adjectives
0.6848994855	services
0.6848828788	papers published
0.6848804523	consistence
0.6848744431	informing
0.6848679944	acronym
0.6848593214	physically
0.6848578179	mesoscopic
0.6848574220	approximation
0.6848569604	high compression ratio
0.6848553123	multi output mimo
0.6848508919	arbitrary shape
0.6848505126	unless
0.6848404252	incompatible
0.6848290421	information acquisition
0.6848114844	automobiles
0.6848066749	biophysical
0.6847781471	angular
0.6847729529	locally
0.6847614418	modular architecture
0.6847520251	volcanoes
0.6847520251	serendipitous
0.6847520251	profiler
0.6847520251	discriminator
0.6847393500	thought
0.6847298011	semiring
0.6847051970	as
0.6847011962	fragment
0.6847009774	hierarchy
0.6846869266	daemon
0.6846690644	cycle
0.6846665180	if
0.6846503176	binders
0.6846503176	repositioning
0.6846438086	complicating
0.6846280352	injections
0.6846171782	hypothesis
0.6846163556	promises
0.6846139260	high data rates
0.6846122029	collaborative activities
0.6845458575	imperative
0.6845456089	running times
0.6845453900	listener
0.6845388231	inefficiency
0.6845242291	mutually
0.6844863970	sparse linear
0.6844832543	ordinary differential
0.6844742537	heuristic
0.6844734292	well posedness
0.6844613500	concave
0.6844587237	conditional probability
0.6844581581	final
0.6844319957	motifs
0.6844314423	unsatisfiability
0.6844229529	human computation
0.6844131498	semigroups
0.6844092549	intervention
0.6843850057	transform coefficients
0.6843693430	parametrically
0.6843677115	convergence
0.6843633032	using
0.6843585130	programming paradigms
0.6843536872	coincides
0.6843518545	delegation
0.6843054836	glyphs
0.6843004229	data mining algorithms
0.6842892528	insects
0.6842871168	scholarly
0.6842568766	adaptive systems
0.6842454502	helicopter
0.6842445687	article
0.6842416128	generalization
0.6842399616	memory cells
0.6842361399	resting
0.6842146119	computing paradigm
0.6842143300	remainder
0.6842046520	helicopters
0.6842045236	bicm id
0.6841969948	slicing
0.6841855396	itu t
0.6841706895	authenticate
0.6841446436	obfuscation
0.6841408428	person
0.6841350595	speeding
0.6841303950	spatial location
0.6841191149	wavelength division
0.6841066381	bid
0.6840622888	coding standards
0.6840599883	morphosyntactic
0.6840531976	phonology
0.6840531976	colourings
0.6840301484	everyday objects
0.6839967633	information retrieval techniques
0.6839751878	histology
0.6839751878	synchronised
0.6839642074	topsis method
0.6839208973	images acquired
0.6839140877	suddenly
0.6839095174	therapeutic
0.6838973185	single server
0.6838912514	user friendliness
0.6838822943	application developers
0.6838769637	regression analyses
0.6838758591	computer assisted
0.6838689148	footprint
0.6838655796	invocation
0.6838571468	fate
0.6838543202	low light
0.6838385003	coli
0.6838301683	association studies
0.6838268777	adaptivity
0.6838216355	harmonious
0.6838174743	premature
0.6837913309	rapport
0.6837913309	microkernel
0.6837833284	dna microarray data
0.6837795335	brain injury
0.6837770893	videoconference
0.6837770893	redevelopment
0.6837770893	hyperparameter
0.6837756789	ignorance
0.6837709628	service robot
0.6837686918	gratings
0.6837678579	continuity
0.6837676200	indexed
0.6837643361	subsystem
0.6837608262	enclosing
0.6837608034	accents
0.6837606656	beneath
0.6837565614	total
0.6837432370	misses
0.6837274740	randomised
0.6837117097	ad hoc wireless
0.6836919275	brute
0.6836891492	critiques
0.6836868253	first order logic
0.6836746654	basic block
0.6836743402	marginal
0.6836526957	nesting
0.6836449699	burned
0.6836449699	podcasts
0.6836286841	teleconference
0.6836264155	future
0.6836214777	computation
0.6836150721	free
0.6836056050	weld
0.6836034647	enablers
0.6835968624	real traces
0.6835853519	unlicensed users
0.6835805418	prognosis
0.6835714518	non minimum phase
0.6835043074	mammograms
0.6834917996	nationwide
0.6834917996	sociological
0.6834747641	velocity profile
0.6834643568	musculoskeletal
0.6834501470	genetic network
0.6834404252	lying
0.6834392842	hardware platforms
0.6833959083	error floor
0.6833801731	decaps
0.6833789354	coverage problem
0.6833668493	tension
0.6833542545	oxygen level
0.6833292587	triggering
0.6833031976	elitism
0.6832864271	nonautonomous
0.6832803552	usage scenarios
0.6832686235	listening
0.6832318957	attacking
0.6832272646	bisection
0.6832129939	commonsense
0.6832090791	wide spread
0.6832040363	transitive
0.6831991777	interferograms
0.6831790719	exponential function
0.6831690410	unexpected
0.6831550401	microelectrode
0.6831371622	gadgets
0.6831371622	digitizing
0.6831371622	cochlea
0.6831171717	mpeg 7
0.6831088363	ascending
0.6830940772	body weight
0.6830804484	lifting based
0.6830710882	week
0.6830551088	dramatic
0.6830289116	biomechanical
0.6830186918	bufferless
0.6830186918	sunlight
0.6830186918	wiredwireless
0.6830186918	bistability
0.6829701359	correspondences
0.6829610193	wireless interfaces
0.6829600724	simple
0.6829563548	authorized
0.6829547642	protein domain
0.6829492534	heteroscedasticity
0.6829492534	randomizing
0.6829304173	takes place
0.6829299218	absolute difference
0.6829003503	manipulators
0.6828664445	resistors
0.6828604378	independent and identically distributed iid
0.6828423691	converged
0.6828390586	transmission
0.6828154218	opposing
0.6827600466	infinite series
0.6827401719	phrases
0.6826992534	milestones
0.6826902889	suspension
0.6826893209	metabolite
0.6826732986	debate
0.6826656584	transcoding
0.6826593834	biologists
0.6826467630	effective
0.6826372337	depth
0.6826293526	process model
0.6826131186	lumen
0.6825975432	inexact
0.6825972658	natural selection
0.6825939343	fine tune
0.6825603585	submerged
0.6825537579	cell library
0.6825508745	fluids
0.6825471189	continents
0.6825177890	disciplinary
0.6825149290	differentiable
0.6825118377	co authorship
0.6824970983	acupuncture
0.6824917076	raw material
0.6824719150	sensor
0.6824639941	speed ups
0.6824638769	injecting
0.6824571902	coping
0.6824463348	damped
0.6824395993	freedom
0.6824188204	rate feedback
0.6823717922	conducting
0.6823617655	storage management
0.6823610709	industry
0.6823358421	hiv 1
0.6823160307	structured queries
0.6823063825	visit
0.6823054055	sensitive
0.6822936017	mismatched
0.6822894373	link utilization
0.6822817203	pathogens
0.6822806198	unexplored
0.6822659379	replicate
0.6822657497	nonmonotone
0.6822647975	training sets
0.6822619182	groupware systems
0.6822468428	spline curves
0.6822424567	prominence
0.6822404930	camera
0.6822348278	ligand based
0.6822346860	molecular interactions
0.6822165809	offs
0.6822158444	posters
0.6822154822	applications
0.6822105028	word pairs
0.6821686502	multiaccess
0.6821686502	specializing
0.6821681114	dea model
0.6821630635	myopic
0.6821486339	visual effects
0.6821365630	dynamic voltage and frequency scaling
0.6821316150	business process model
0.6821287286	trains
0.6821251935	inducing
0.6821130938	fft based
0.6820972725	modifying
0.6820922510	bottlenecks
0.6820634589	everyday
0.6820599883	proteinligand
0.6819923539	retrievals
0.6819801071	busy
0.6819793880	competitive
0.6819652074	head motion
0.6819602991	intermediaries
0.6819496023	received considerable attention
0.6819281327	regularization parameters
0.6819222332	existentially
0.6819190899	e learning
0.6818815678	based clustering
0.6818807984	moderated
0.6818781663	staggered
0.6818505658	fault tolerant distributed
0.6818227050	triggered
0.6818135241	error vector
0.6818085757	pediatric
0.6817858422	purchasing
0.6817801917	data clustering
0.6817613865	relaxation
0.6817577247	omitting
0.6817503237	precursors
0.6817382726	cache architecture
0.6817304725	hierarchies
0.6817277487	conservation
0.6817237773	the
0.6817222790	rectification
0.6817114739	download
0.6817016495	critical review
0.6816855203	compressibility
0.6816834863	mobile environment
0.6816792254	large scale sensor networks
0.6816653989	needing
0.6816310861	hidden variables
0.6816239521	class classification problems
0.6816204137	wedge
0.6816041969	disassembly
0.6815984529	idle
0.6815531976	curators
0.6815505562	bandwidth requirement
0.6815471189	punctuation
0.6815449913	synaptic
0.6815198977	mechanically
0.6815127487	adolescents
0.6814998002	nonlinear model predictive
0.6814781510	radiating
0.6814781510	escaping
0.6814781510	materialization
0.6814781510	achievability
0.6814781510	rhetoric
0.6814781510	mergers
0.6814658444	fractured
0.6814658444	predication
0.6814272932	regulation
0.6814198990	gis based
0.6814146412	bundled
0.6814090459	class classifier
0.6813672851	multicast services
0.6813605185	feedback bits
0.6813460041	navigational
0.6813311497	network interfaces
0.6813049862	mr image
0.6812976322	multigraph
0.6812848426	motility
0.6812788947	restricted
0.6812778959	necessity
0.6812757395	semantic level
0.6812684876	flow graphs
0.6812600842	human error
0.6812331247	bearings
0.6811898678	linear programming problems
0.6811877276	social security
0.6811853169	unsynchronized
0.6811853169	leasing
0.6811719715	worse
0.6811708121	fixation
0.6811639899	gateways
0.6811607513	discussion
0.6811470168	restart
0.6811292500	online social network
0.6811219634	modeling methodology
0.6811200570	owing
0.6811149653	initiated
0.6811117009	modularity
0.6811114805	salient
0.6810945260	resynthesis
0.6810802515	clearing
0.6810791832	identically distributed iid
0.6810784344	automatic verification
0.6810765860	age group
0.6810672175	demapper
0.6810627755	zoning
0.6810617311	codification
0.6810617311	discretisation
0.6810446603	twist
0.6810288198	fusion rules
0.6810279098	control scheme
0.6810200705	fitted
0.6810180880	leveraged
0.6810071757	technology
0.6809723333	receivers
0.6809625290	narrowing
0.6809412306	indepth
0.6809337384	vitro
0.6809328554	peoples
0.6809266832	stacking
0.6809118538	suppressed
0.6809007450	cryptographically
0.6808858544	databases
0.6808832444	swept
0.6808699671	continuations
0.6808699671	adapters
0.6808613584	cortex
0.6808586549	data availability
0.6808009435	spectrogram
0.6808009435	troubleshooting
0.6807898746	outer
0.6807825041	higher dimensions
0.6807808747	scalability
0.6807712040	loci
0.6807696760	denoting
0.6807696760	iterating
0.6807685918	prompt
0.6807629839	computer mediated
0.6807603510	discrete continuous
0.6807600824	rights
0.6807587710	context aware systems
0.6807507569	sensitivity
0.6807411395	distributed decision making
0.6807237154	payment
0.6806889469	packages
0.6806612765	unobservable
0.6806463285	exams
0.6806431930	communication media
0.6806358290	communicated
0.6806315467	byte
0.6806207090	interleaving
0.6806013537	reasoned
0.6806004334	fpga resources
0.6805627826	polynomial
0.6805516083	save energy
0.6805351382	firmware
0.6805088389	minimum phase
0.6805067215	inconsistent
0.6805062401	smoke
0.6805023242	exemplify
0.6804936668	agent technology
0.6804893361	informative
0.6804853982	continuous query
0.6804806409	score
0.6804753713	answered
0.6804651940	qos management
0.6804620667	inclusions
0.6804557494	nonlinear controller
0.6804515430	symmetry based
0.6804468718	decision criteria
0.6804395511	spams
0.6804353759	multisets
0.6804353169	reordered
0.6804080395	dilation
0.6804029037	copyright 2009 john wiley sons
0.6804012299	transmitters
0.6803858067	stress
0.6803772364	de noising
0.6803744160	chaos based
0.6803711061	perturbations
0.6803660511	clusterhead
0.6803405860	programming problems
0.6803397515	communication
0.6803212549	richly
0.6803206967	interdependency
0.6803124564	job
0.6803064682	stochasticity
0.6802964404	interference ici
0.6802833002	particularly
0.6802814386	one
0.6802786284	grouped
0.6802771192	intrusive
0.6802662407	stent
0.6802584923	classification trees
0.6802466101	tough
0.6802464723	malleable
0.6802422757	heterogeneous multi core
0.6802312881	mobile technology
0.6802312242	counterfeit
0.6802308549	low resolution images
0.6802165100	sinusoid
0.6802165100	cultivation
0.6802088253	does
0.6801990715	detection capability
0.6801928851	blogs
0.6801877543	healthcare services
0.6801600159	municipalities
0.6801600159	matting
0.6801329945	large deviations
0.6801251379	backtracking
0.6801094641	dynamic threshold
0.6801070613	spectrum
0.6800993094	constraint
0.6800880712	binding modes
0.6800815957	pronounced
0.6800794422	sociability
0.6800744933	punctured
0.6800555492	crude
0.6800537094	t s fuzzy
0.6800449710	policy management
0.6800369577	nondominated
0.6799970755	melt
0.6799864194	particulate
0.6799769835	overlaying
0.6799668369	this
0.6799587262	fitness
0.6799337384	multitude
0.6799017979	machine interface
0.6798902728	caricature
0.6798860764	piano
0.6798816754	looking
0.6798802781	avatar
0.6798768359	traffic
0.6798660612	restore
0.6798319947	production
0.6798283559	tied
0.6798009435	myocardium
0.6797792422	hydrophobic
0.6797693412	exercising
0.6797693412	intraclass
0.6797693412	yearly
0.6797667444	term structure
0.6797640599	inferences
0.6797603043	detrimental effects
0.6797565404	dynamic networks
0.6797450947	neural network approach
0.6797188076	ellipsoids
0.6797188076	tetrahedra
0.6797182339	record
0.6797023786	preoperative
0.6796932126	interferer
0.6796887527	idea
0.6796861480	lit
0.6796632767	defenses
0.6796631898	matrix inequality
0.6796431883	concentrates
0.6796352861	challenges
0.6796324951	another
0.6796184243	markers
0.6795957316	gps signals
0.6795944318	pseudospectral
0.6795751481	disseminate
0.6795451781	sound quality
0.6795355176	centers
0.6795351382	repeater
0.6795347467	output quality
0.6795310771	role based access
0.6795230676	community
0.6794897113	ordering
0.6794840424	subroutine
0.6794811696	curiosity
0.6794783082	retrieval accuracy
0.6794535350	low power embedded
0.6794385063	roadside
0.6794090081	moment generating function
0.6793748076	image capture
0.6793740642	am
0.6793652402	blockage
0.6793523426	rule
0.6793008064	attack
0.6792957738	agent based systems
0.6792770755	encryptions
0.6792760374	beings
0.6792689844	auditing
0.6792672729	disorder
0.6792659020	ann model
0.6792466101	pluggable
0.6792390081	lesser
0.6792217285	nonlinear observer
0.6792139570	mice
0.6792022238	tori
0.6791992780	decap
0.6791836455	coverage
0.6791734645	microrobots
0.6791719699	elicited
0.6791640051	force sensors
0.6791551893	information systems gis
0.6791524134	defend
0.6791498925	transactions
0.6791407982	service levels
0.6791379674	manifolds
0.6791329857	triplets
0.6791329857	lecturers
0.6791329857	i1
0.6791188493	reaction
0.6791143779	visions
0.6791138285	del
0.6790973434	segmentation methods
0.6790957170	torque
0.6790738375	contracts
0.6790115883	randomly chosen
0.6790040917	tractable
0.6789975935	least
0.6789922294	beside
0.6789798175	gears
0.6789688076	subtractive
0.6789642989	rovers
0.6789541945	roughness
0.6789534483	overtaking
0.6789486106	service industry
0.6789422887	streams
0.6789166479	waveband
0.6789118538	lay
0.6788987602	status
0.6788845869	scrubbing
0.6788549616	behalf
0.6788418623	bags
0.6788120641	amino
0.6788065385	large display
0.6787942934	functional relationships
0.6787810535	synonymous
0.6787793949	feed
0.6787629911	task execution
0.6787382609	cover
0.6787189647	highly dynamic
0.6787189055	artefact
0.6786971838	noteworthy
0.6786849884	ethanol
0.6786815932	acquiring
0.6786620582	provably
0.6786395115	affordance
0.6786318250	these
0.6785931983	administered
0.6785867011	active rfid
0.6785794422	recombinant
0.6785790455	quality criteria
0.6785750584	distinguishes
0.6785531455	object retrieval
0.6785372354	missing
0.6785250437	captions
0.6784975042	hypervolume
0.6784927089	hardware
0.6784798175	seasonality
0.6784737571	ago
0.6784562655	005
0.6784539028	cohen grossberg neural networks
0.6784444147	scattered
0.6784356511	imitation
0.6784283978	beginners
0.6784283978	antagonistic
0.6784279761	software companies
0.6783946842	negotiation process
0.6783897526	tactics
0.6783829857	cervix
0.6783801537	toa based
0.6783523174	test compression
0.6783493493	sorting algorithm
0.6783232880	vertex
0.6783202751	novel
0.6783076209	advent
0.6782856155	static
0.6782789064	opacity
0.6782622726	information transfer
0.6782462491	do
0.6782353676	officers
0.6782294607	pathogen
0.6782215569	joint source
0.6781988624	packet
0.6781748543	quality
0.6781701523	inductive logic
0.6781480064	undirected graph
0.6781360985	fell
0.6780958024	predictive control mpc
0.6780885615	siam j
0.6780876369	reorientation
0.6780876369	empathic
0.6780765800	occlusions
0.6780759473	prerequisites
0.6780696432	application integration
0.6780544740	high load
0.6780514887	toolset
0.6779760071	pruned
0.6779548049	iterative method
0.6779296636	complexes
0.6779238932	path based
0.6779233241	holes
0.6778999934	skinning
0.6778978908	scholarship
0.6778912203	optimal routing
0.6778779095	heterogeneous distributed
0.6778708611	distinctive
0.6778677072	gates
0.6778262677	alarms
0.6778182966	safety analysis
0.6778181475	utilitarian
0.6778162023	micro level
0.6778156928	puncturing
0.6777968188	highways
0.6777932032	efficient resource allocation
0.6777828323	minimise
0.6777692385	computer
0.6777670717	salesman
0.6777392073	fun
0.6777204986	smoothing
0.6777076513	activation
0.6776535210	alice and bob
0.6776503293	90nm
0.6776341431	elite
0.6776275178	money
0.6776270307	wide adoption
0.6776236499	imaging systems
0.6775831766	gyroscopes
0.6775699794	startup
0.6775690710	horizontal
0.6775656956	multi view video
0.6775478968	linear phase
0.6775471045	receiver
0.6775013309	leaves
0.6774919922	illustrative examples
0.6774917526	vectorial
0.6774475440	reaching
0.6774416098	sharpening
0.6774400705	web queries
0.6774292920	academic research
0.6774289835	dependencies
0.6774140238	neuronal network
0.6774022381	anomalies
0.6774001099	multiple choice
0.6773946269	textbook
0.6773928005	hidden layers
0.6773632685	visitor
0.6773521507	network mimo
0.6773484410	emptiness
0.6773333708	efficient parallel
0.6773266555	energy costs
0.6773039812	pseudonyms
0.6772935622	incompatibilities
0.6772935622	diagrammatic
0.6772935622	restrained
0.6772685329	pedagogy
0.6772634855	microorganisms
0.6772561697	global optima
0.6772555881	priors
0.6772415704	security solution
0.6772238164	access
0.6772208179	accelerators
0.6772179344	localizing
0.6772111466	apart
0.6772030861	high dimensional feature space
0.6771942082	identically distributed
0.6771817899	delegate
0.6771657348	substructure
0.6771518218	remotely
0.6771500107	convex combination
0.6771446522	amsr e
0.6771089172	caution
0.6771022326	pathways
0.6770956334	diffusive
0.6770824440	parity check codes
0.6770819262	interviews
0.6770747261	coincide
0.6770671881	customer demand
0.6770541143	beliefs
0.6770448169	hands
0.6770379745	activities of daily living
0.6770331199	engineering practices
0.6770318922	semantics
0.6770216039	viewing
0.6770088100	mass production
0.6770051017	debugging
0.6769981852	human detection
0.6769609387	unattended
0.6769532365	theoretic
0.6769517515	human operators
0.6769435736	inaccuracies
0.6769411719	reranking
0.6769388226	principle
0.6769375807	common
0.6769299941	discrete particle swarm
0.6769048998	spectrum band
0.6768936559	movies
0.6768812002	drain
0.6768769276	automatic translation
0.6768606360	proteome
0.6768557995	dyadic
0.6768000813	strings
0.6767994885	foliage
0.6767973147	semantic web applications
0.6767930879	minus
0.6767910681	matters
0.6767817363	key ingredient
0.6767791110	definitions
0.6767392073	antecedents
0.6767323886	maximum delay
0.6767260423	matrix
0.6766980954	multi population
0.6766917744	opposite
0.6766865211	privately
0.6766825167	local neighborhood
0.6766700850	comply
0.6766655407	bandlimited
0.6766533174	stretched
0.6766470574	short channel
0.6766403705	locally linear
0.6766329857	intermodulation
0.6766302266	compounds
0.6766247842	approximation guarantee
0.6766232955	threats
0.6766229958	blocking
0.6766088419	pagerank algorithm
0.6765988623	code length
0.6765913131	semantic content
0.6765663128	novelty
0.6765273555	network environment
0.6764865675	lyrics
0.6764510125	lower order
0.6764460734	modality
0.6764191945	apparatus
0.6764066732	virtual memory
0.6763732447	hpc systems
0.6763542671	bit interleaved
0.6762507091	weighing
0.6762507091	verifications
0.6762197612	sees
0.6762021688	selectively
0.6761888872	ligand
0.6761325925	supercomputers
0.6761157355	processing element
0.6761008714	conformity
0.6760832685	extensional
0.6760779928	ratings
0.6760670184	smart environment
0.6760658121	correlates
0.6760555504	gyrus
0.6760553097	threshold functions
0.6760186064	dialogs
0.6759994797	freeform
0.6759832908	autistic
0.6759760383	thruster
0.6759747027	security threat
0.6759689302	refined
0.6759668205	absolute error
0.6759620171	performance measure
0.6759600694	sink nodes
0.6759423654	inadequate
0.6759321008	attract
0.6759263295	statistical features
0.6759253961	sequential programs
0.6759115761	height
0.6759112089	censoring
0.6759009326	moderation
0.6758959578	buckling
0.6758514016	optimum solution
0.6758376305	sequence
0.6758334187	puts
0.6758086033	differentiator
0.6758027738	quantified
0.6757875518	motion
0.6757798175	visuo
0.6757579898	coordinator
0.6757574437	correlation properties
0.6757518181	initializing
0.6757434685	decision boundaries
0.6757348333	distance measurements
0.6756936334	simplifying assumptions
0.6756933968	impulses
0.6756769972	relative
0.6756722521	landmarks
0.6756690634	key points
0.6756201131	cultured
0.6756201131	fluidic
0.6756101785	equalizers
0.6756072994	decision
0.6755980064	80222
0.6755865428	subset
0.6755665627	inter core
0.6754951766	database servers
0.6754937158	mri data
0.6754804561	lost
0.6754761771	maximising
0.6754708356	deeper
0.6754662099	relocation
0.6754199519	whats
0.6754181531	chromaticity
0.6754014345	voids
0.6753726339	80211e
0.6753440413	syntactic structure
0.6753003604	guards
0.6752882965	malicious
0.6752687325	layout
0.6752646241	industrial practice
0.6752493756	reals
0.6752484410	chemotaxis
0.6752484410	negotiated
0.6752371049	bottleneck
0.6751808979	failure mechanisms
0.6751497629	rss based
0.6751463934	enabling technologies
0.6751461507	family
0.6751239699	testing tool
0.6750981043	consultants
0.6750895073	substation
0.6750840438	internet applications
0.6750823480	optionally
0.6750771219	imagined
0.6750599034	distributed computing systems
0.6750030187	mechanistic
0.6749705334	message routing
0.6749687704	watermarking techniques
0.6749633630	packet based
0.6749164635	propagation delays
0.6749123416	enter
0.6749009326	athletes
0.6748842916	cloth
0.6748841844	textual
0.6748713708	solution space
0.6748518233	dominance based
0.6748482482	warped
0.6748274485	remote controller
0.6748080809	light conditions
0.6747998790	prey
0.6747934518	resource efficient
0.6747468315	multi thread
0.6747434222	learning theory
0.6747346524	usability tests
0.6747316781	evidence
0.6747303932	determinant
0.6747085668	generalization performance
0.6746886887	business process execution
0.6746790947	visualized
0.6746414388	hereby
0.6745991153	competences
0.6745955554	unobtrusive
0.6745911410	stability properties
0.6745803669	rollover
0.6745633092	expression data
0.6745623868	view
0.6745410436	disruptions
0.6745401339	incurring
0.6745118232	test
0.6745009726	dependant
0.6744993922	homes
0.6744810831	artificially
0.6744786500	text detection
0.6744740439	contracting
0.6744634420	memory space
0.6744593470	accounted
0.6744475824	john wiley sons ltd
0.6744467416	stretchable
0.6744340906	argumentation based
0.6744295045	fibres
0.6744176727	pattern language
0.6744054449	parallel mechanism
0.6743895073	blame
0.6743718634	sensor devices
0.6743502589	dedicated
0.6743484410	independency
0.6743461090	zero forcing
0.6743257803	virtual view
0.6743041165	rewriting systems
0.6743031755	narrow
0.6743024650	software services
0.6743024438	information assurance
0.6742935203	optimization methods
0.6742852714	nontrivial
0.6742729106	distributed sensor networks
0.6742674258	signal processing techniques
0.6742489128	sufficient conditions
0.6742368756	related key
0.6742363072	distractors
0.6742163497	avenues
0.6742085817	data dependent
0.6742065890	encoding
0.6741936968	host
0.6741765519	infinitely
0.6741756000	tactic
0.6741683976	memory requirements
0.6741489616	previously reported
0.6741376452	researching
0.6741367526	workers
0.6741306376	restriction
0.6741210538	discussions
0.6741174522	resistance
0.6741094178	trend
0.6740832827	fiducial
0.6740636792	progressions
0.6740545700	quadrotor
0.6740250883	radio environment
0.6740105323	dynamic texture
0.6739880527	linker
0.6739880527	defenders
0.6739851525	spite
0.6739840631	e utra
0.6739680996	names
0.6739468559	nonlinear partial differential
0.6739437885	inbound
0.6739437885	radiographs
0.6739437885	alternation
0.6739354684	suggestions
0.6739211306	statistical power
0.6739207382	lemmas
0.6739103879	performance degradation
0.6738996301	evenly
0.6738995060	ieee 80211 wlan
0.6738994664	coding rate
0.6738707133	optimization strategies
0.6738584373	active power
0.6738572436	hereditary
0.6738408929	acoustic model
0.6738240434	software agent
0.6738188364	e banking
0.6738110881	codewords
0.6738052992	member
0.6737961541	np hard problems
0.6737941756	resource constraint
0.6737881492	couple
0.6737867933	shrinkage
0.6737809439	space exploration
0.6737765029	stationary distribution
0.6737266721	architectures
0.6737058404	observer
0.6736950753	multi perspective
0.6736859680	liquids
0.6736561522	cooperating nodes
0.6736477665	semantic relationship
0.6736326892	pedal
0.6736180868	compromised
0.6736147488	spend
0.6736112025	relative degree
0.6736100520	research article
0.6736039882	contrast
0.6735966333	degrading
0.6735963424	palindromic
0.6735805878	soon
0.6735759821	precomputation
0.6735580081	web document
0.6735504550	supplies
0.6735490935	combinatorial optimization problem
0.6735370291	qos levels
0.6735297275	prepare
0.6735211484	catchment
0.6735064596	thread level
0.6734865390	uci datasets
0.6734722265	tree languages
0.6734614910	initiate
0.6734558917	failure analysis
0.6734376911	vice
0.6734366636	type 2 fuzzy sets
0.6734288888	judging
0.6734166160	connectives
0.6734139494	speaker
0.6734121396	codes
0.6734061027	derivative pid
0.6734016515	multi armed
0.6733895073	binder
0.6733774482	maneuvering
0.6733447572	buffer
0.6733421216	enjoy
0.6733126955	numerical simulations
0.6732998524	substantial
0.6732868829	capital
0.6732654936	homomorphism
0.6732385890	functional programs
0.6732290375	scheduled
0.6732130756	implied
0.6732110511	self similar traffic
0.6732005528	equal length
0.6731839457	group oriented
0.6731794024	buyers
0.6731783104	tagging systems
0.6731551173	limiter
0.6731235207	passages
0.6730913613	fading
0.6730619519	security requirement
0.6730571870	scans
0.6730297584	accept
0.6730109369	spoof
0.6729751978	space dimension
0.6729721676	regularizing
0.6729569803	incomplete
0.6729451707	connectedness
0.6729281228	range measurements
0.6729207382	multistep
0.6728898178	symbolic analysis
0.6728871019	inventory level
0.6728854392	future research directions
0.6728820015	absolute
0.6728786854	instantaneous channel
0.6728737406	pixel
0.6728381611	came
0.6728250584	reserved
0.6728089131	forest fire
0.6728059796	power lines
0.6727948321	theories
0.6727884401	merit
0.6727793048	yarn
0.6727482934	ranked
0.6727406286	derivable
0.6727212367	suboptimum
0.6727145970	axis
0.6726984109	intact
0.6726821863	consensus algorithms
0.6726755162	performance loss
0.6726742779	adjusting
0.6726718267	shared understanding
0.6726684472	sector
0.6726656805	brain function
0.6726421436	capacity
0.6726282314	interfaces
0.6726275249	yes
0.6726273026	tissues
0.6726261262	considerations
0.6726259233	encouraging
0.6726153160	channel statistics
0.6725926089	fundamental
0.6725658988	stable
0.6725527675	sensed data
0.6725490357	inter class
0.6725381853	methodological approach
0.6725358398	plane
0.6724975047	reference tracking
0.6724939106	task decomposition
0.6724804738	behavioral models
0.6724492727	dates
0.6724282219	knowledge
0.6724204320	face
0.6724074396	switched networks
0.6723969301	querying
0.6723653707	cue
0.6723595370	sounds
0.6723559831	arousal
0.6723530860	consequent
0.6723396219	univariate
0.6723176381	quality aware
0.6722962079	fundamentally
0.6722957340	elucidating
0.6722886631	agents
0.6722762813	rendering
0.6722546454	cost efficient
0.6722510057	stochastic dynamics
0.6722361345	research issues
0.6721884506	configurability
0.6721880752	user
0.6721704751	overlap
0.6721646040	scientists
0.6721619910	ferrite
0.6721619910	sulcal
0.6721525734	hierarchically
0.6721517966	reads
0.6721500886	projection based
0.6721463669	relaying protocols
0.6721300559	touching
0.6721013142	priorities
0.6720986744	trials
0.6720844435	pirate
0.6720753186	class distribution
0.6720551173	shutdown
0.6720526610	neuron model
0.6720513229	fault tolerant systems
0.6720479212	industries
0.6720423911	stock
0.6720340899	thereafter
0.6720330615	antigenic
0.6720279129	displacement
0.6720140009	managerial implications
0.6720022216	subproblems
0.6719856228	footstep
0.6719856228	acquaintance
0.6719765829	gene pairs
0.6719711116	acting
0.6719526327	sum of squares
0.6719473473	weighting matrices
0.6719341758	noc design
0.6719179289	type 2 fuzzy logic
0.6719168215	binding
0.6719130502	workflow applications
0.6719091689	homogeneous
0.6719043242	bandwidth constraints
0.6718702228	multiple modalities
0.6718493739	attained
0.6718298328	fusion algorithm
0.6718241605	joining
0.6718193536	service systems
0.6718013244	motivational
0.6717985575	fmri study
0.6717802892	screen space
0.6717795374	jerk
0.6717734299	gazetteers
0.6717734299	biochip
0.6717671026	user query
0.6717615096	main task
0.6717430947	repulsive
0.6717426114	linear inequalities
0.6717399292	opposed
0.6717325235	speech recognition systems
0.6717252722	cost function
0.6717137626	confronted
0.6716767736	epitopes
0.6716767736	kernelization
0.6716362109	dual tree
0.6716343136	self adaptation
0.6716079144	envelopes
0.6716047793	roam
0.6715627953	pertaining
0.6715627581	planners
0.6715605521	production cost
0.6715573203	qualified
0.6715539621	concept
0.6715424062	public databases
0.6715400115	biological
0.6715200992	afterwards
0.6715025361	neutral
0.6714988431	context management
0.6714848194	excitable
0.6714679002	gaussian distributed
0.6714653543	distal
0.6714635433	fmri studies
0.6714084754	fulfilled
0.6714072953	tokamak
0.6714072953	midpoint
0.6714067363	tracking accuracy
0.6714029332	decomposition method
0.6713901844	decision problem
0.6713869734	monoids
0.6713774263	bill
0.6713588136	corridors
0.6713262252	psychophysical
0.6713175903	high angular resolution
0.6713137426	served
0.6713132257	relays
0.6712953014	dual space
0.6712946004	input signal
0.6712788791	lower complexity
0.6712756466	channel response
0.6712735363	architecture exploration
0.6712587556	gradients
0.6712542286	warps
0.6712542286	urine
0.6712542286	superimposition
0.6712542286	galvanic
0.6712489861	phytoplankton
0.6712455743	competitive advantages
0.6711957604	scattering
0.6711759776	accumulate
0.6711734665	actuators
0.6711647448	dispatching
0.6711614780	sourcing
0.6711133545	65nm
0.6710950746	designated
0.6710638662	rising
0.6710535359	sensibility
0.6710470570	shortening
0.6710462041	etch
0.6710298101	rank based
0.6710287969	decoder
0.6710283588	decision procedure
0.6710273389	disadvantage
0.6710212400	answer
0.6710166451	projection operator
0.6710162330	transmissions
0.6710121573	image pixels
0.6709746504	diffusion model
0.6709321008	issued
0.6709241605	decompositions
0.6708934075	heuristics
0.6708913820	imbalance
0.6708873661	hybrid method
0.6708848397	artificial intelligence techniques
0.6708626838	social groups
0.6708621025	transitivity
0.6708569798	multi access
0.6708505305	domain dependent
0.6708439422	theoretical analysis
0.6708192070	hydrostatic
0.6707988314	genetic fuzzy
0.6707945329	purchase
0.6707816301	congruences
0.6707797441	complexity theory
0.6707687934	style
0.6707428225	sustaining
0.6707420807	decentralized adaptive
0.6707207691	axial
0.6707141815	characterised
0.6707062299	mean opinion score
0.6706995166	video object
0.6706960975	ethnographic
0.6706890547	shaders
0.6706474583	users interests
0.6706447668	gestural
0.6706007943	optima
0.6705684411	chassis
0.6705684411	maintainers
0.6705684411	refreshing
0.6705665190	iteration
0.6705486064	memory intensive
0.6705047306	integrals
0.6705037718	data types
0.6705015069	automatic synthesis
0.6705000880	strict
0.6704948862	abnormality
0.6704822708	ellipses
0.6704821801	helpers
0.6704821801	abbreviation
0.6704821801	microchip
0.6704804050	parallel simulation
0.6704523269	bioactive
0.6704481431	inhomogeneous
0.6704434589	circularity
0.6704377675	administrators
0.6704333255	encryption algorithm
0.6704270537	anaphoric
0.6704267865	signal quality
0.6704249630	micro architecture
0.6704227189	realm
0.6704223693	ofdm transmission
0.6704179372	routers
0.6703874589	forehead
0.6703852452	incorporation
0.6703824627	evolutionary approaches
0.6703692710	traitors
0.6703684109	bolus
0.6703618554	rework
0.6703618554	mixers
0.6703427187	grid architecture
0.6703307309	resection
0.6703268861	moments
0.6703267916	system
0.6703154896	asymptotic behavior
0.6703085877	consisted
0.6702778284	offset
0.6702639504	interval graph
0.6702164555	on chip interconnects
0.6702145368	ieee 80211 distributed coordination function
0.6702057206	learning scenarios
0.6701951431	heuristic optimization
0.6701885768	pivots
0.6701885768	watersheds
0.6701885768	nonhuman
0.6701885768	augmentations
0.6701798145	uncertain information
0.6701628266	solver
0.6701572783	professionals
0.6701472389	consumers
0.6701456702	borderline
0.6701456702	malleability
0.6701253819	security infrastructure
0.6701224311	aggregated
0.6701183524	right
0.6701010616	teaching methods
0.6700759821	cueing
0.6700709305	local region
0.6700709029	probability
0.6700602586	pepper noise
0.6700575819	comparative analysis
0.6700440937	round trip time
0.6700343425	illuminating
0.6700017597	emulators
0.6699930367	navigation tasks
0.6699735490	false
0.6699687667	clearly
0.6699629284	originally
0.6699492721	demographic
0.6699431648	fabric
0.6699361339	growing
0.6699151974	decision function
0.6699091768	resetting
0.6698735538	replenishment
0.6698579160	real robot
0.6698505110	react
0.6698186982	viewpoints
0.6698175939	leaks
0.6698083295	modern processors
0.6698070059	statistic
0.6697892704	waste
0.6697729677	resiliency
0.6697659745	intermediate node
0.6697617978	persistent
0.6697510266	metric
0.6697372285	private data
0.6697223711	reductions
0.6697199033	brain mr
0.6697178086	codebook based
0.6697051242	arise naturally
0.6697025392	specialized
0.6696885735	parameterizable
0.6696653194	historical data
0.6696538185	unreliable
0.6696534210	web usage
0.6696488468	precautions
0.6696488468	refutation
0.6696276877	survive
0.6696260061	exons
0.6696120062	training symbols
0.6696087855	meshing
0.6696072210	reproducible
0.6696010725	direct adaptive
0.6695756277	multiple hypothesis
0.6695620494	meaning
0.6695576882	quantizers
0.6695553150	higher data rate
0.6695443359	collection
0.6695339863	morphological operations
0.6695328397	accurately predict
0.6695221986	suboptimal
0.6695132254	cooperators
0.6695132254	welche
0.6695132254	revolute
0.6695132254	vibratory
0.6695132254	fluoroscopic
0.6695132254	vibro
0.6695128822	multi phase
0.6695091961	transfers
0.6695080884	scalable parallel
0.6695032007	segmentation algorithms
0.6694920713	invisible
0.6694578329	proprietary
0.6694475094	confidence level
0.6694156125	contractible
0.6694137562	heterogeneous resources
0.6694114046	recall
0.6694022958	mitigated
0.6693895606	informationsupplementary data
0.6693868662	microarray technology
0.6693865052	qos parameters
0.6693845591	regularizer
0.6693844619	standard
0.6693745852	retraction
0.6693541814	wide bandwidth
0.6693386772	modular structure
0.6693342913	cooperative network
0.6693325940	allocating resources
0.6693241304	an industrial case study
0.6693195713	skeletons
0.6693106633	overlooked
0.6692917365	country
0.6692889960	sample rate
0.6692510552	poly
0.6692344551	multi class support vector machine
0.6692197450	field measurements
0.6692157766	optimal designs
0.6692008464	power allocation algorithm
0.6691944318	model reduction
0.6691855686	decreasing
0.6691723803	stand
0.6691640542	social group
0.6691358057	qualitative spatial
0.6691323681	group signature
0.6691316932	resist
0.6691295175	dropouts
0.6691285247	reversed
0.6691207737	arrangement
0.6691175043	final state
0.6691174850	infotainment
0.6690840859	fuzzy modeling
0.6690827305	im
0.6690706772	healthcare information
0.6690693149	facilitators
0.6690673909	body pose
0.6690528404	dynamic traffic
0.6690503469	slight
0.6690503177	multiple instance
0.6690459783	passes
0.6689998346	fissures
0.6689986799	perceiving
0.6689789347	concentrated
0.6689679345	reversibility
0.6689460572	hybrid evolutionary
0.6689331660	multi channel wireless
0.6689327990	highly integrated
0.6688899410	reference signal
0.6688833001	addressing
0.6688784884	retransmission
0.6688539040	colour images
0.6688529837	confined
0.6688294635	supervision
0.6688290035	retarded
0.6688193149	visualisations
0.6688090522	local orientation
0.6688037640	delay constraints
0.6688032039	reconstruction algorithms
0.6687610534	net present value
0.6687546221	detection limit
0.6687543799	extremely large
0.6687409363	gaze tracking
0.6687299393	position information
0.6687292280	ensured
0.6687104660	conversions
0.6686984029	watching
0.6686907634	algorithm
0.6686900259	texture based
0.6686761262	adjustment
0.6686488331	postprocessing
0.6686325810	eigenvector
0.6686139372	pass filters
0.6686124198	ibm system z10
0.6686031991	productivity
0.6685885492	parallel processors
0.6685865108	perceived
0.6685806100	genotype data
0.6685777143	interference
0.6685563500	among
0.6685509004	detour
0.6685484495	surprising
0.6685415770	2n
0.6685402853	long standing
0.6685298188	characterizations
0.6685216424	microbubbles
0.6685216424	spines
0.6685057607	wireless video
0.6684937612	companies
0.6684843685	occupied
0.6684789437	energies
0.6684531290	equipment
0.6684467891	expansion terms
0.6684320305	mature
0.6684311103	stuck
0.6684296240	interfering
0.6684264741	neuroimaging data
0.6683952239	repairable
0.6683341419	hello
0.6683301377	widely adopted
0.6683111279	alignments
0.6683071079	covariant
0.6682824880	specificity
0.6682799621	proposing
0.6682668911	interacting
0.6682530027	labelling
0.6682517001	innermost
0.6682483709	previous works
0.6682366016	unit imu
0.6682318548	scenery
0.6682129139	supplemental
0.6682109924	appearance models
0.6681933387	panoramas
0.6681933387	habituation
0.6681550342	crisp
0.6681453659	input referred
0.6681426155	results
0.6681365378	variation
0.6681108830	gradient method
0.6680866309	characterise
0.6680862419	multi hypothesis
0.6680415410	mum
0.6680356327	systems
0.6680312752	diagnose
0.6680035959	backstepping
0.6679809420	slide
0.6679680730	poisson point
0.6679644422	channel
0.6679545367	pursue
0.6679505515	atomically
0.6679505515	datacenter
0.6679153383	diversity multiplexing
0.6679120798	audiovisual
0.6679014494	pushing
0.6678958986	thresholding method
0.6678859021	human mobility
0.6678799273	temperature measurements
0.6678727651	user requests
0.6678406418	interleaver
0.6677354928	garments
0.6677354928	predators
0.6677336542	dependent variables
0.6677231347	recording
0.6677107794	hierarchical structures
0.6677107788	inferred
0.6676964079	average
0.6676934479	uci machine learning
0.6676808606	walls
0.6676715738	choice
0.6676710305	folded
0.6676649620	biomarkers
0.6676428196	secondary
0.6676219068	misunderstandings
0.6676219068	sigmoidal
0.6676207604	loading
0.6676202431	hidden states
0.6676103977	descriptors
0.6676082862	started
0.6676061968	equilibrium
0.6675947057	openings
0.6675700001	segment
0.6675528633	secure authentication
0.6675525843	logs
0.6675508183	ante
0.6675483762	shaking
0.6675447884	nonadaptive
0.6675250974	penalized
0.6675152120	worst case analysis
0.6674983829	multibody
0.6674633396	left
0.6674570888	ictal
0.6674499775	interleavers
0.6674423690	practicality
0.6674363108	interacts
0.6674291171	display
0.6674284564	supplemented
0.6674272408	reactions
0.6674082769	global positioning system
0.6674017387	malicious activities
0.6673777246	high variability
0.6673750261	max plus
0.6673380084	constrain
0.6673373005	caching scheme
0.6673318802	opposite direction
0.6673178172	bending
0.6672589906	toolchain
0.6672473225	floorplan
0.6672393703	productions
0.6672334106	thin plate
0.6672306039	cooking
0.6672293392	topologies
0.6671973498	instrumental
0.6671776961	commonly accepted
0.6671760601	operons
0.6671672506	independent component
0.6671625853	screen
0.6671607900	setup cost
0.6671591975	processing cores
0.6671387198	playing
0.6671374164	lyapunov based
0.6671368805	georeferenced
0.6671368805	supervising
0.6671289132	mediated communication
0.6671269924	licensed
0.6671059134	conformers
0.6671059134	rewritings
0.6671059134	epicardial
0.6671059134	ell
0.6670964244	trapping
0.6670717729	delivery
0.6670685070	forty
0.6670494011	aberrations
0.6670437181	zum
0.6670329885	feasible solutions
0.6670315742	swing
0.6670004896	high correlation
0.6670003391	cursor
0.6669997183	clothing
0.6669981642	mandatory
0.6669945225	background traffic
0.6669931211	provision
0.6669821440	faithful
0.6669654537	visually
0.6669652764	interaction paradigm
0.6669541093	translocation
0.6669303801	web information
0.6668991659	production costs
0.6668900624	experimented
0.6668841374	depleted
0.6668838848	dependently
0.6668803335	instruments
0.6668788343	denotes
0.6668773895	programming environments
0.6668610975	linear equations
0.6668535843	structural characteristics
0.6668438642	carrying
0.6668338941	element
0.6668263877	evaluators
0.6668222210	transmitted signals
0.6667836547	shuffled
0.6667778859	accompanied
0.6667502950	covering problem
0.6667263877	flag
0.6667180792	hypertree
0.6667095483	hovering
0.6667095483	finitary
0.6667095483	federations
0.6667073042	healthy
0.6666950780	explosion
0.6666893307	voting games
0.6666645170	medical students
0.6666418554	anthropometric
0.6666418554	videogame
0.6666418554	additivity
0.6666338848	submanifold
0.6666338848	minded
0.6666247697	software industry
0.6666103871	keystream
0.6665885360	contractors
0.6665875015	aco based
0.6665850222	controller
0.6665839487	probing
0.6665475149	suffering
0.6665379589	slow
0.6665328678	robot team
0.6665305119	during
0.6665278884	carry
0.6665247770	sixty
0.6664899569	macroblocks
0.6664876615	exact expressions
0.6664868704	originating
0.6664840218	test vector
0.6664809630	agent model
0.6664633376	gaussian interference
0.6664499974	balls
0.6664454120	speech input
0.6664369266	quiet
0.6664176127	tables
0.6663873149	question arises
0.6663673447	temporal reasoning
0.6663522070	periodicity
0.6663488412	s boxes
0.6663331851	delay
0.6663330516	preamble
0.6663324654	single classifier
0.6663290035	quintic
0.6663049666	strengthen
0.6662803903	polyhedra
0.6662803903	younger
0.6662545188	human eye
0.6662538458	discriminate
0.6662498612	microscale
0.6662316010	priority scheduling
0.6662291701	inertial measurement
0.6662271348	security goals
0.6662271330	vergence
0.6662074469	save
0.6661976608	shortcoming
0.6661906602	internal state
0.6661834290	visual navigation
0.6661363055	cutset
0.6661321795	patches
0.6661317014	compiled
0.6661197084	invasive surgery
0.6661056186	notifications
0.6660875357	imperfect channel
0.6660789505	acts
0.6660721651	target location
0.6660626468	service consumers
0.6660309179	decoding algorithm
0.6660156307	multiple perspectives
0.6660102787	side channel
0.6660030630	overbooking
0.6659980532	angry
0.6659980532	cotton
0.6659980532	shareholders
0.6659902710	flow level
0.6659471278	higher throughput
0.6659442760	grained
0.6659428750	frontal
0.6659350597	spatial analysis
0.6659291201	decidable
0.6659215358	contribution
0.6659205699	corpus based
0.6659146664	extrinsic
0.6658969511	scripted
0.6658842352	imaging spectroradiometer modis
0.6658772932	nadir
0.6658592476	constants
0.6658473305	commercial software
0.6658382994	highly robust
0.6657921599	metering
0.6657863065	textures
0.6657773983	stochastic model
0.6657703197	amended
0.6657650149	contract based
0.6657236104	occluded
0.6657126598	valued
0.6656846467	noisy environments
0.6656701819	indistinguishability
0.6656663221	complete coverage
0.6656519096	downsampling
0.6656519096	inflammation
0.6656340228	relied
0.6656308785	mining algorithm
0.6656059000	customisation
0.6656059000	villages
0.6655958490	routing policies
0.6655855584	glimpse
0.6655685976	shuffling
0.6655521624	model based design
0.6655223181	demon
0.6654994793	killing
0.6654977828	based reasoning cbr
0.6654811525	crystallographic
0.6654753087	refractory
0.6654520006	addition
0.6654088347	predetermined
0.6653980428	dimensional subspace
0.6653906993	elderly people
0.6653906104	all pairs shortest
0.6653743414	low power wireless
0.6653709763	inflated
0.6653649412	sections
0.6653594085	weight function
0.6653592625	comparator
0.6653521776	negatively
0.6653475327	consultant
0.6653475327	regularizers
0.6653475327	coaching
0.6653149864	heading
0.6652857932	control architecture
0.6652848438	cross site
0.6652692154	weaknesses
0.6652439877	internal memory
0.6652337109	pareto front
0.6652331270	icp algorithm
0.6652224168	parameter estimates
0.6652034646	paradoxical
0.6652022905	reconstruction quality
0.6651681360	quality attribute
0.6651680817	success factor
0.6651635735	imposition
0.6651635735	fueled
0.6651601597	decoding process
0.6651436122	application domain
0.6651426541	peer to peer overlay
0.6651378859	empty
0.6651332148	indirectly
0.6651219170	enforced
0.6651148626	semi automatically
0.6651130523	artwork
0.6651075713	technological
0.6650880154	interaction networks
0.6650747879	conflicts
0.6650731675	highly reliable
0.6650649356	longitude
0.6650610476	physical
0.6650357359	losing
0.6650210554	fast response
0.6649986916	conceived
0.6649983296	equational
0.6649814765	positioning systems
0.6649749990	uncover
0.6649718752	responsible
0.6649640437	volumes
0.6649472635	source
0.6649414223	width
0.6649336543	fore
0.6649306469	mutant
0.6649119170	bookmarks
0.6649043740	ground penetrating
0.6648869350	query results
0.6648856487	user friendly interface
0.6648790115	ignore
0.6648671617	unbalanced
0.6648385845	rich
0.6648240773	endogenous
0.6648201734	proofs
0.6647634749	communication links
0.6647527766	mobile rfid
0.6647373770	managers
0.6647345995	semi analytical
0.6647332945	similarity matching
0.6647103848	duopoly
0.6647101615	listed
0.6646942490	proof
0.6646723643	compelling
0.6646621347	instructors
0.6646495477	audits
0.6646483197	teamwork
0.6646428816	orthologs
0.6646428816	dividers
0.6646428816	proportionality
0.6646262175	vectorized
0.6646224025	clustering problem
0.6646126175	decision model
0.6646095847	concentric
0.6645981514	emulator
0.6645965982	bytes
0.6645876492	secret data
0.6645794931	cover image
0.6645684928	data mining technique
0.6645605262	neurosurgery
0.6645603964	biologically
0.6645582221	polytopes
0.6645492649	information diffusion
0.6645392333	ambulance
0.6645236038	expected cost
0.6645144587	imperfection
0.6645144587	safeguards
0.6645113961	performance optimization
0.6645110781	sugarcane
0.6645096867	user identification
0.6644710547	undeniable
0.6644642728	cumulative distribution
0.6644615378	bijective
0.6644600063	transforms
0.6644425464	intuitive
0.6644419582	several
0.6644412187	com
0.6644403938	constriction
0.6644403938	quota
0.6644379787	integers
0.6644320046	interactivity
0.6644129496	state
0.6643928816	areal
0.6643869931	checksum
0.6643742334	constrained optimization problem
0.6643733746	impurity
0.6643661764	participating
0.6643594915	development framework
0.6643528247	terminology
0.6643417365	collisions
0.6643149864	roaming
0.6643079909	tinnitus
0.6642892333	lexicalized
0.6642875005	downloaded
0.6642339177	conflicting
0.6642279719	consecutive
0.6642251024	empowered
0.6642248223	windowed
0.6641881459	saw
0.6641583416	resorting
0.6641457975	non local means
0.6641438209	3rd
0.6641334283	file
0.6641327646	motivations
0.6641253927	dynamical model
0.6641168428	outliers
0.6641103871	obstructions
0.6640955230	mined
0.6640795635	falls
0.6640756287	inequalities
0.6640751151	expanded
0.6640723137	timbre
0.6640463845	reviews
0.6640396538	admit
0.6640369949	failure occurs
0.6640346147	tests
0.6640287594	intermediate
0.6640236057	data provenance
0.6640139933	curricula
0.6640059293	jpeg 2000
0.6640009199	panorama
0.6639856580	empirical investigation
0.6639690562	prominent
0.6639455515	application execution
0.6639342138	ground truth data
0.6639091996	proposition
0.6638966711	completions
0.6638966711	receipt
0.6638881649	unorganized
0.6638856485	excluding
0.6638837085	scientometric
0.6638837085	linearizable
0.6638837085	waving
0.6638748931	polysemous
0.6638748931	combinators
0.6638707851	discriminant function
0.6638595509	alerting
0.6638570304	stimulate
0.6638272957	parameter values
0.6638245363	grid points
0.6638129851	decomposition approach
0.6638101322	seated
0.6638101322	orienting
0.6638068571	biomedical data
0.6638026725	prints
0.6637494716	filters
0.6637482689	furthest
0.6637234951	voltage levels
0.6637228311	wireless multimedia
0.6637199467	adults
0.6637029201	personalities
0.6637029201	swinging
0.6637029201	nutrients
0.6637017223	contrary
0.6636904235	knowledge based systems
0.6636690902	intentional
0.6636639933	investigators
0.6636233229	streets
0.6636189054	information filtering
0.6636090757	wins
0.6636038326	variational formulation
0.6635758662	rotated
0.6635552569	centred design
0.6635546288	reflected
0.6635541630	hydrophobicity
0.6635541630	pathologic
0.6635541630	coarticulation
0.6635427381	video scene
0.6635169180	bodies
0.6635147834	homeostatic
0.6635031984	quality characteristics
0.6634995634	promoter
0.6634885412	adjusts
0.6634781975	nicht
0.6634730455	fold
0.6634693392	reformulations
0.6634532172	relations
0.6634394563	identically
0.6634212992	social graph
0.6634181372	perform poorly
0.6634112735	correlations
0.6634101075	adjacent channel
0.6633871241	compression algorithms
0.6633808201	bit parallel
0.6633756277	traffic distribution
0.6633726414	extrapolation
0.6633657096	stochastic stability
0.6633563780	average power ratio papr
0.6633462175	unintentional
0.6633093111	eventually
0.6632618135	optimal relay
0.6632457240	untimed
0.6632457240	bearer
0.6632457240	mutational
0.6632457240	distinctiveness
0.6632311694	video broadcasting
0.6632130389	traffic density
0.6632125363	velocity
0.6631845483	subexponential
0.6631671582	contractual
0.6631600121	advancing
0.6631381224	unicycle
0.6631377214	methodical
0.6631328488	admittance
0.6631147921	legally
0.6631102821	product code
0.6631045771	prioritizing
0.6631025942	interfere
0.6630896089	slides
0.6630871833	suit
0.6630581705	organizational structures
0.6630527076	guaranteed
0.6630401337	detection schemes
0.6630366391	prosthetic
0.6630202978	transporting
0.6630099676	phase
0.6630021117	temporal dynamics
0.6629982784	annotation tool
0.6629905890	morphometric
0.6629856261	transversal
0.6629769563	deficient
0.6629709618	source extraction
0.6629689818	testable
0.6629676118	manufacturer
0.6629616051	casts
0.6629426619	large graphs
0.6629416893	linear predictive
0.6629320657	estimation method
0.6629312793	decompose
0.6629280458	range
0.6629143390	entrepreneurial
0.6629143390	hemoglobin
0.6629036782	embracing
0.6628759263	formulas
0.6628708007	physical phenomena
0.6628597113	local search methods
0.6628288881	basic elements
0.6627799182	selective fading channels
0.6627731904	site
0.6627115708	school students
0.6626952461	microprocessors
0.6626905943	halftone
0.6626806852	monomial
0.6626775381	warranty
0.6626768799	small and medium sized
0.6626671453	classification model
0.6626603750	lagged
0.6626565561	group testing
0.6626482181	unmatched
0.6626453584	a
0.6626406299	computer aided detection
0.6626341592	organizations
0.6626307417	closure properties
0.6626242206	chance
0.6626174639	object motion
0.6626162819	security levels
0.6626090665	retain
0.6626017105	pictures
0.6625943622	goes
0.6625924052	surrogates
0.6625579315	qualitative analysis
0.6625571390	centrally
0.6625507760	premises
0.6625183988	reducibility
0.6625172464	computation intensive
0.6625094073	accuracies
0.6625091483	arbitrarily
0.6624979236	subword
0.6624938595	harmonization
0.6624938595	fruits
0.6624773389	rearrangements
0.6624693325	single nucleotide
0.6624664465	network administrators
0.6624603945	staffing
0.6624591947	high level language
0.6624365730	shielding
0.6624099503	syntactic features
0.6623827105	decision variables
0.6623792260	packet arrival
0.6623247671	fragments
0.6623050541	coordinators
0.6622969511	pictorial
0.6622920216	coefficient
0.6622863167	service robots
0.6622644735	shape model
0.6622633377	quadric
0.6622528630	feature
0.6622522409	additional
0.6622522250	reformulating
0.6622505850	implementation issues
0.6622438595	neuroscientists
0.6622422274	surface
0.6622370817	mappings
0.6622149864	cohesion
0.6622109871	semantic matching
0.6622088761	mobile environments
0.6622041167	subdivisions
0.6621836891	sequential pattern
0.6621622003	power adaptation
0.6621391589	mrf model
0.6621377214	lightness
0.6621365378	dependent
0.6621217341	exemplarily
0.6621144514	antennas
0.6620953119	denial
0.6620840045	languages
0.6620729929	visited
0.6620385386	secure multi party
0.6620292193	sometimes
0.6620185655	service component
0.6620106906	likelihood
0.6620051156	true
0.6619972464	position paper
0.6619919669	threads
0.6619804664	formally
0.6619758305	preventing
0.6619700967	regeneration
0.6619686306	pricing model
0.6619663903	priming
0.6619540379	pipe
0.6619521440	untrained
0.6619521440	chemotherapy
0.6619478396	extractors
0.6619478396	substrings
0.6619398475	preceding
0.6619273832	worms
0.6619242599	platoon
0.6618895307	scale factor
0.6618708703	local optimization
0.6618599388	granularity
0.6618583790	pattern languages
0.6618578483	logic circuit
0.6618457485	external disturbance
0.6618295186	upright
0.6618146594	feature values
0.6617998519	workstations
0.6617892333	overtime
0.6617892333	hover
0.6617771727	derivatives
0.6617719049	file size
0.6617693065	goodness of fit
0.6617654104	upward
0.6617631217	instructions
0.6617599777	rectifier
0.6617340519	prices
0.6617177179	lesion
0.6616716294	adjusted
0.6616704148	impact
0.6616657066	remains unclear
0.6616631065	justifying
0.6616576717	shaped
0.6616396278	appearance
0.6616125218	kiln
0.6616111277	complex diseases
0.6616075599	lately
0.6615901084	software modules
0.6615836255	learnability
0.6615836255	timers
0.6615729353	embryos
0.6615708663	electronically
0.6615481818	sorting genetic algorithm
0.6615465141	gene network
0.6615219719	solvers
0.6615215272	auction based
0.6615156834	electrically
0.6615151709	signal transmission
0.6615127203	harder
0.6615081315	admissibility
0.6614966960	elicit
0.6614737616	current sources
0.6614699769	water filling algorithm
0.6614698415	zero padding
0.6614611074	hypothesis test
0.6614355442	vortices
0.6614347119	effective connectivity
0.6614228192	inequality
0.6614076074	newer
0.6613975287	end to end delay
0.6613847329	newspapers
0.6613847329	discriminatively
0.6613478971	broadening
0.6613227109	discretizing
0.6613227109	centralization
0.6613201166	standard pso
0.6613074255	premise
0.6612991984	text input
0.6612928475	treat
0.6612791355	phylogenies
0.6612736884	initial point
0.6612732524	approximate solutions
0.6612683668	traversals
0.6612674322	least squares support vector
0.6612603390	vision systems
0.6612199415	tangential
0.6612136949	chemotactic
0.6612076501	check
0.6611859665	digital rights
0.6611854441	combinatorial properties
0.6611790573	attachments
0.6611653348	inductance
0.6611401620	demanding
0.6611235795	pivoting
0.6610999371	instrumentation
0.6610810047	lecture notes in computer science
0.6610681877	natural resource
0.6610607288	virtual space
0.6610461446	hardened
0.6610355262	asymmetrically
0.6610299352	rows
0.6610229115	mobile interaction
0.6609864887	styles
0.6609790470	labeled
0.6609698518	electrolyte
0.6609655209	optimization techniques
0.6609479611	considerable
0.6609471611	leibler divergence
0.6609468846	informational
0.6609404905	unidirectional
0.6609353423	scheduling decisions
0.6609293159	pertinent
0.6609290573	microbenchmarks
0.6609272158	fall short
0.6609184936	reset
0.6609150535	parallelism
0.6608937761	energy utilization
0.6608873444	minimization algorithm
0.6608865639	primes
0.6608407210	multi issue
0.6608350996	actionable
0.6608310369	energy resources
0.6608309853	daily
0.6607995772	intractable
0.6607948454	database queries
0.6607837493	current trends
0.6607773126	minimum spanning
0.6607700732	noise ratio snr
0.6607574755	spending
0.6607437116	function evaluations
0.6607392359	graph structured
0.6607188606	advancements
0.6607164076	main
0.6607093666	integrator
0.6606985985	start
0.6606845577	distributed software development
0.6606613414	forming
0.6606565123	heterogeneous systems
0.6606436941	signal classification
0.6606352386	recall rate
0.6606004037	degrades
0.6605962796	reducts
0.6605896383	analytic solution
0.6605781755	execution
0.6605641815	vicinity
0.6605518426	unprecedented
0.6605518395	learning rule
0.6605498107	engineers
0.6605232608	happiness
0.6605126650	answer queries
0.6605108520	reactivity
0.6605091142	uniformly
0.6604978396	activating
0.6604859920	higher data rates
0.6604767018	deduce
0.6604682558	automated classification
0.6604587566	joint power
0.6604513996	upwind
0.6604485245	gyro
0.6604411452	hysteresis
0.6604300846	wired
0.6603893030	mode
0.6603599436	hardwired
0.6603599436	trainable
0.6603449883	international symposium
0.6603179701	assists
0.6603047557	based access control model
0.6603021510	chambers
0.6602975059	friendly
0.6602941165	liveness
0.6602857728	measurement technique
0.6602814683	virtual channel
0.6602720922	archetypes
0.6602409858	binary codes
0.6602406445	multimedia application
0.6602356640	rig
0.6602323428	ubiquitous services
0.6602280781	80216e
0.6602261694	visualizations
0.6602104706	tours
0.6602074975	source nodes
0.6602015309	intensively studied
0.6601726509	active set
0.6601473418	solvable
0.6601355382	discipline
0.6601234155	fpga architecture
0.6601182446	message overhead
0.6601085742	unsatisfiable
0.6600949007	dynamics
0.6600803628	flow analysis
0.6600788084	inspecting
0.6600756618	three
0.6600683908	accessible
0.6600668411	proceeds
0.6600530607	network resources
0.6600079908	distortion
0.6600020140	description
0.6599923403	comparators
0.6599846961	component
0.6599722783	wired network
0.6599589011	encapsulating
0.6599566562	coexisting
0.6599404905	microarrays
0.6599066409	importing
0.6599066409	pharmacological
0.6599013673	ciphertexts
0.6598824875	combiners
0.6598809992	earlier studies
0.6598733075	amplifying
0.6598646537	digital cmos
0.6598502487	iterative algorithms
0.6598469604	easily accessible
0.6598327941	shocks
0.6598060747	gradient descent method
0.6597981261	imbalances
0.6597954378	learning strategies
0.6597944799	convey
0.6597791355	criminals
0.6597665216	mentally
0.6597207240	subtask
0.6597207240	synthesizers
0.6597195665	walks
0.6597127296	intelligent transportation system
0.6597041710	recent progress
0.6596390221	noise ratio
0.6596331606	conditional density
0.6596268654	forested
0.6596268654	chairs
0.6596186582	success
0.6595965902	pressure
0.6595914091	ebusiness
0.6595798126	variety
0.6595615892	distributed algorithms
0.6595551008	ct data
0.6595525159	factual
0.6595434522	rectilinear
0.6595326221	retransmissions
0.6595127512	configure
0.6595113297	mild
0.6595028133	emerges
0.6595028133	regulate
0.6594910956	psychometric
0.6594904958	centralized control
0.6594744364	irrelevant features
0.6594687426	realistic
0.6594683755	node level
0.6594661549	zero
0.6594623253	dynamic evolution
0.6594237085	mounting
0.6593935060	researchers
0.6593909406	correctness
0.6593882568	obviously
0.6593864088	inevitable
0.6593760871	ideal
0.6593674820	new
0.6593641371	stands
0.6593636969	group based
0.6593590997	probabilistic timed
0.6593575586	circuits
0.6593524220	self calibration
0.6593346782	terminals
0.6593167833	ratio
0.6593082788	seeing
0.6593020562	unlabelled
0.6592909222	integrators
0.6592802953	terminological
0.6592802953	creator
0.6592717564	programmer
0.6592357647	critique
0.6592258162	degenerate
0.6592115378	correlative
0.6592055857	gene products
0.6591780244	timescale
0.6591708716	state variable
0.6591382029	partial information
0.6591101933	global motion
0.6591096961	change
0.6591083471	two
0.6590945887	case retrieval
0.6590620983	partly
0.6590508859	limiting
0.6590297954	quantifiers
0.6589892010	interconnected
0.6589807181	failure
0.6589772600	magnitude
0.6589634556	scientifically
0.6589577296	adverse
0.6589399742	frictional
0.6588995989	infants
0.6588910020	fluency
0.6588791527	compile
0.6588663892	covered
0.6588386757	executables
0.6588031803	spatial context
0.6587766758	enzymatic
0.6587590469	access policy
0.6587509459	linear code
0.6587508578	many core architectures
0.6587284664	intensity
0.6587220532	penalty
0.6586809273	practical implications
0.6586574967	multiplexing tradeoff
0.6586517473	key cryptography
0.6586395398	3gpp
0.6586113724	foods
0.6586086846	phase field
0.6586013871	thin
0.6585955390	continuous improvement
0.6585806276	consonants
0.6585271135	energy functional
0.6585198000	query plan
0.6585011382	third party
0.6584755492	explaining
0.6584728549	forge
0.6584423597	sketches
0.6584380797	collocated
0.6584237007	s box
0.6584209545	tooth
0.6584145662	tight
0.6584112735	collections
0.6584096978	project team
0.6584006904	observable
0.6583920166	nonstationary
0.6583891502	equidistant
0.6583575939	weakening
0.6583188450	through
0.6583188107	unbalance
0.6583133234	salient features
0.6583012448	meanwhile
0.6582748139	project risk
0.6582747763	triangulations
0.6582713775	detection algorithms
0.6582670108	deny
0.6582660807	conserving
0.6582557245	multi modality
0.6582483510	sustain
0.6582270572	carefully chosen
0.6582210868	price of anarchy
0.6582105282	cranes
0.6582105282	meal
0.6582093736	tracking performance
0.6582036622	unique
0.6581802773	entrainment
0.6581760411	multiple objectives
0.6581697755	polyominoes
0.6581335874	justify
0.6581242027	welcome
0.6581228731	correlate
0.6581144884	centric approach
0.6580906590	dictionaries
0.6580743726	pages
0.6580617432	concrete
0.6580260210	water flow
0.6580145876	collapse
0.6580132454	raised
0.6580117319	cohesive
0.6580018506	related terms
0.6579936942	complex events
0.6579917835	physical properties
0.6579820592	reports
0.6579440252	forwarded
0.6579151794	decoherence
0.6578843836	synergies
0.6578833086	borrowers
0.6578818890	camera images
0.6578273911	single core
0.6578247186	communication infrastructure
0.6578184124	approximated
0.6578167663	signal processing applications
0.6578148305	apparently
0.6578137549	processors
0.6578130611	bars
0.6577995846	hopefully
0.6577979459	replay
0.6577905174	semigroup
0.6577827124	iterative solution
0.6577713764	newcomers
0.6577713764	witnesses
0.6577660292	peak signal to noise ratio psnr
0.6577516643	saving
0.6577471331	optimization procedure
0.6577391995	wireless personal area
0.6577282062	initiating
0.6577277354	abnormalities
0.6577175282	irreversible
0.6577145213	uniquely
0.6577104706	inspections
0.6576964549	nodules
0.6576923121	multi hop ad hoc
0.6576827184	improvements
0.6576163334	biclusters
0.6575277294	task graphs
0.6575146914	voltages
0.6575125888	graduates
0.6574985946	waveguides
0.6574828998	programmed
0.6574694881	plane graph
0.6574686747	noise filtering
0.6574539770	cancelation
0.6574198044	retargeting
0.6573757708	preferably
0.6573707104	raising
0.6573695798	evaluation framework
0.6573661954	slowly
0.6573583025	visual processing
0.6573273045	sidelobe
0.6572865647	binary sequence
0.6572833118	clarifying
0.6572782702	stereotype
0.6572646885	signal to noise ratio snr
0.6572606392	proteomics
0.6572586772	clocking
0.6572367093	method
0.6572237935	global information
0.6572233040	neuro fuzzy inference system
0.6572180101	clinical information
0.6572119943	doubling
0.6572099398	computer science
0.6572040028	uploading
0.6572038452	numerical scheme
0.6571666796	backhaul
0.6571355035	attractors
0.6571293284	representation
0.6571246979	attempting
0.6571099602	therein
0.6571075081	interpolating
0.6571063834	bias
0.6571000711	transcoder
0.6570980024	vendors
0.6570507813	dealt
0.6570482019	bayesian decision
0.6570424381	electrical characteristics
0.6570297435	regulatory
0.6570137478	tissue
0.6570022133	nevertheless
0.6569843793	potentials erps
0.6569792522	host language
0.6569786609	preparing
0.6569757239	eight
0.6569650379	deploy
0.6569637882	earnings
0.6569610688	nanoparticles
0.6569577240	browser based
0.6569395386	cascades
0.6569364344	framework
0.6569158124	p2p file
0.6569067371	vehicle to vehicle
0.6568927447	facet
0.6568768343	former
0.6568662483	human human
0.6568585998	automatic recognition
0.6568550718	termination analysis
0.6568529030	lists
0.6568387617	serious games
0.6568302632	process algebraic
0.6568286509	restrictive assumptions
0.6568069497	cracks
0.6567979459	rings
0.6567960703	metrics
0.6567944878	layer
0.6567817416	interested
0.6567775581	plan
0.6567687374	capacitances
0.6567633913	inversions
0.6567617848	next generation wireless networks
0.6567357336	fuzzy inference system
0.6567317458	investigative
0.6567317458	quartic
0.6567314763	avoid unnecessary
0.6567296095	commitment
0.6567288962	persist
0.6567258615	accidental
0.6567124391	computer aided design
0.6567110883	wheeled mobile
0.6566736956	isotropic
0.6566728077	dynamic scheduling
0.6566595738	optimizations
0.6566502558	peak
0.6566216611	auch
0.6566185229	offering
0.6566144172	engineering design
0.6566139042	mean absolute error
0.6566059539	global clock
0.6565846961	content
0.6565486886	motivated
0.6565398462	valuable insights
0.6565397133	besides
0.6565290593	walk
0.6565183643	categorize
0.6565143207	differently
0.6564976793	wireless optical
0.6564910918	coupled nonlinear
0.6564863421	regressions
0.6564791746	making
0.6564730123	commercially
0.6564637882	wings
0.6564517458	punishment
0.6564380431	slant
0.6564378323	affordances
0.6564327962	forward af
0.6564165109	such
0.6564070611	native language
0.6563976094	my
0.6563943926	randomly distributed
0.6563804104	received significant attention
0.6563689663	gaussian source
0.6563675537	diseases
0.6563474327	internationally
0.6563078809	proof search
0.6563074069	authoritative
0.6562758807	environment
0.6562683718	multipath components
0.6562665787	consequences
0.6562528123	emerging patterns
0.6562460001	anterior
0.6562308712	usual
0.6562298712	shape based
0.6562128373	graph based approach
0.6562028129	tilings
0.6561771091	keypoints
0.6561686579	calibrated
0.6561607099	fifteen
0.6561517796	offset estimation
0.6561374610	shifts
0.6561293912	segmented
0.6561251816	hyperlink
0.6561251816	guarded
0.6561123635	muscles
0.6561100398	ellipse
0.6561067458	precoders
0.6560986441	elucidation
0.6560915010	continuous variables
0.6560721513	interactional
0.6560620522	reaction times
0.6560598170	q learning
0.6560415932	eccentric
0.6560168239	dimensional
0.6559946831	responds
0.6559910837	assembly process
0.6559752399	aborts
0.6559620726	superfluous
0.6559620726	walkers
0.6559526668	performance modeling
0.6559498695	general terms
0.6559269412	challenged
0.6559225801	damage
0.6559054779	variant
0.6558818579	offload
0.6558742484	current status
0.6558520198	practicing
0.6558516382	design decisions
0.6558505206	interpreter
0.6558324183	machines
0.6558317482	clear
0.6558051879	strange
0.6557672982	unilateral
0.6557491472	lmi approach
0.6557488037	rogue
0.6557429958	winds
0.6557345049	heard
0.6557172323	history based
0.6557051184	data publishing
0.6556908205	narratives
0.6556908205	tutors
0.6556879480	selector
0.6556876669	million
0.6556742021	interference range
0.6556741293	compatible
0.6556441123	game theoretic approach
0.6556439279	modification
0.6556317296	constituent
0.6556108781	recruiting
0.6555913407	exciting
0.6555885582	pervasive applications
0.6555799801	joints
0.6555738860	surface mesh
0.6555571621	distortions
0.6555397133	secondly
0.6555155501	position error
0.6555093070	np complete problems
0.6554992914	joins
0.6554717459	editions
0.6554624891	coarse
0.6554539797	scale
0.6554435199	providing
0.6554221050	workpiece
0.6554218110	movable
0.6554131647	visual interface
0.6554063391	columns
0.6553907735	high level features
0.6553471911	multiple versions
0.6553289048	filter
0.6553174542	layered space time
0.6553122823	worked
0.6552667390	contours
0.6552528637	origin
0.6552472213	modelers
0.6552458081	minutia
0.6552346003	freeness
0.6551585564	definition
0.6551539859	stabilizer
0.6551058075	tuned
0.6550764250	horizontally
0.6550233900	line graph
0.6550156534	predictions
0.6549854041	lasers
0.6549801051	consultation
0.6549786609	devising
0.6549728731	public service
0.6549644050	motes
0.6549514731	elegant
0.6549371104	positive effects
0.6549225676	recursively
0.6549085800	cooperate
0.6548895756	business service
0.6548877427	false discovery
0.6548824935	telepresence
0.6548747522	goodput
0.6548505206	falling
0.6548433608	mathematical analysis
0.6548411639	monolingual
0.6548205928	belonging
0.6548193927	deemed
0.6548154170	authentication mechanisms
0.6548064127	cover problem
0.6548043173	visual word
0.6547681152	emphasizing
0.6547220753	biomechanics
0.6547181827	legitimate
0.6547122188	late
0.6546320906	problem instances
0.6545958088	experience
0.6545821942	elliptical
0.6545821370	invalidation
0.6545192563	seemed
0.6545163034	airplane
0.6544946831	tended
0.6544910813	field
0.6544902613	prefetch
0.6544887576	comfort
0.6544828587	targeted
0.6544604569	tessellation
0.6544598269	categorized
0.6544549001	melody
0.6544357251	parties involved
0.6544339827	traffic streams
0.6544096624	solvation
0.6544087155	learning method
0.6544030406	crossings
0.6543912356	courses
0.6543674527	fragmentation
0.6543601495	theoretical study
0.6543548754	feature level
0.6543528824	experimentally
0.6543522452	particle filter based
0.6543491462	correlator
0.6543459193	warehouses
0.6543236874	035
0.6543015838	timing error
0.6542940910	performance gain
0.6542899940	response
0.6542381569	claim
0.6542333926	isolated
0.6542278906	traffic matrices
0.6542158268	filtration
0.6542013613	potentials
0.6541919252	fill
0.6541882586	pipelining
0.6541834869	implementation
0.6541604776	digital objects
0.6541531012	dislocation
0.6541531012	softness
0.6541505850	high frequencies
0.6541368723	executing
0.6541355796	parametric models
0.6541303177	pile
0.6541109781	pulse coupled
0.6541092103	second life
0.6540947709	divide and conquer
0.6540935263	controllers
0.6540781815	concentration
0.6540730932	relational model
0.6540727729	imitating
0.6540561396	minutes
0.6540515336	burstiness
0.6540511962	groundwork
0.6540424609	backside
0.6540424609	scavenging
0.6540205120	increasingly
0.6540141463	equation
0.6539933049	video based
0.6539920361	throughput
0.6539905074	stringent
0.6539597163	contextually
0.6539554048	external
0.6539347575	transitive graphs
0.6539218456	traders
0.6539211592	fingertip
0.6538930769	common knowledge
0.6538842130	industrial design
0.6538789688	regret
0.6538644159	screw
0.6538617818	directing
0.6538546209	fully
0.6538366420	vector machine
0.6538353575	prefrontal
0.6538197679	peristaltic
0.6538134614	invertibility
0.6538128353	success rates
0.6537932171	sitting
0.6537910669	stylized
0.6537908635	text recognition
0.6537735316	disturbance
0.6537720953	107
0.6537458846	durability
0.6537297714	portraits
0.6537255478	point processes
0.6537190294	reorder
0.6537128501	evaporation
0.6536914854	copies
0.6536899653	undirected
0.6536586193	modalities
0.6536374214	extra
0.6536346993	profit
0.6536184911	dependent bold
0.6536122341	keyboards
0.6535911761	data base
0.6535701236	feature analysis
0.6535508037	image interpretation
0.6535096205	translates
0.6534969629	sensor management
0.6534790116	ieee 80211 mac
0.6534652180	curricular
0.6534390294	concordance
0.6534382617	voluntary
0.6534312259	bursting
0.6534011774	exceed
0.6533690350	consume
0.6533665331	normalization
0.6533626769	details
0.6533612217	delays
0.6533585891	begun
0.6533526808	pupils
0.6533456783	hosts
0.6533427823	imaging spectroradiometer
0.6533387030	benchmark datasets
0.6533327373	educational systems
0.6532979843	physiologically
0.6532828168	sides
0.6532743905	experimentally validated
0.6532656665	format
0.6532119943	testbeds
0.6531949935	entropies
0.6531872349	tune
0.6531853942	localize
0.6531839609	topical
0.6531829700	sediments
0.6531829700	reversals
0.6531771949	dereverberation
0.6531585160	self dual codes
0.6531572821	appropriation
0.6531446958	textiles
0.6531124517	quantized
0.6531058741	relative importance
0.6530996017	monadic second order
0.6530721292	voice over internet
0.6530640738	euler method
0.6530603531	emulating
0.6530567747	sums
0.6530541530	timing behavior
0.6530422434	restoring
0.6530360948	unit square
0.6530230538	annotations
0.6530171910	journals
0.6530098452	transshipment
0.6530098452	presynaptic
0.6530098452	locomotor
0.6530069085	extensively studied
0.6529966778	pelvis
0.6529902501	multi channel multi
0.6529846130	upgrading
0.6529823883	proceed
0.6529713514	tolerate
0.6529697545	point boundary value problem
0.6529663124	complex
0.6529632213	130
0.6529420881	built in self test
0.6529258602	readings
0.6529072697	testing framework
0.6528988158	depot
0.6528385930	rapidly growing
0.6528230421	design process
0.6528203475	anger
0.6528171709	logistic model
0.6528060310	space
0.6527930496	downloads
0.6527925942	ended
0.6527834312	differencing
0.6527651166	terminal
0.6527643056	stochastic systems
0.6527538443	propagate
0.6527482690	multiplexing tradeoff dmt
0.6527308205	linkages
0.6527258649	mesh based
0.6527245162	truth
0.6526791834	directionality
0.6526603274	noticeable
0.6526497522	anomalous
0.6526298399	optimizers
0.6526229960	molecule
0.6526226851	incorrect
0.6526218686	curve
0.6525811694	colours
0.6525780618	detection systems ids
0.6525727729	deliveries
0.6525707725	small
0.6525620785	confidential information
0.6525562733	ordinary
0.6525409952	downlink packet
0.6525387111	audience
0.6525206643	camera view
0.6525168221	pde based
0.6524700096	difference image
0.6524579024	ongoing research
0.6524398349	coarseness
0.6524265553	noise robust
0.6524222373	learning content
0.6524200031	module
0.6524095407	driving force
0.6523985138	web sources
0.6523898399	digitization
0.6523760237	kernel learning
0.6523369601	methodologies
0.6523366875	cr networks
0.6523328003	principal
0.6523146388	benchmarks
0.6522870023	an
0.6522830581	expertise
0.6522666030	memory organization
0.6522397520	turn
0.6522385256	translators
0.6522019426	reservoirs
0.6521981881	factor
0.6521926016	loads
0.6521887989	software verification
0.6521579166	point boundary value problems
0.6521543820	3g
0.6521515687	strength
0.6521339116	managed
0.6520978181	parallel distributed
0.6520892497	network dynamics
0.6520836013	compress and forward
0.6520809734	coverage control
0.6520719121	exemplified
0.6520191498	transmission powers
0.6520182504	image processing algorithms
0.6520127457	filterbank
0.6519910733	collectively
0.6519713767	research findings
0.6519381565	spheres
0.6519254067	she
0.6519176260	earlier
0.6519120941	fuel
0.6519035365	abandoned
0.6518725420	engines
0.6518607945	nodal
0.6518385893	parallelized
0.6517872536	learning material
0.6517688275	wage
0.6517671728	mounted
0.6517616248	chopper
0.6517616248	baggage
0.6517399397	inductors
0.6517358178	demand rate
0.6517345791	013
0.6517312596	user intervention
0.6517148315	dynamical properties
0.6517014198	loops
0.6516930449	off
0.6516754927	slots
0.6516697513	estimators
0.6516663868	express
0.6516620823	failures
0.6516548654	combinatorial problem
0.6516544590	pipelines
0.6516385422	your
0.6516280904	disease
0.6516192014	practitioners
0.6516151852	next generation
0.6516135856	body
0.6516073940	transformation matrix
0.6515969856	tetrahedral
0.6515690110	node selection
0.6515466623	merits
0.6515256980	undesirable
0.6515242643	interplay
0.6515227321	synchronous communication
0.6515110046	components analysis pca
0.6514773765	human intervention
0.6514739937	perceive
0.6514661966	utilised
0.6514649359	acoustic modeling
0.6514523364	anode
0.6514501623	multiple alignment
0.6514341348	corrupted
0.6514257449	externalities
0.6514257449	transcriptome
0.6514237097	frequency
0.6514143718	maternal
0.6514048251	wide ranging
0.6513524307	functional networks
0.6513514419	permit
0.6513471759	clue
0.6513333548	scan based
0.6513066840	voltage variation
0.6513059823	foci
0.6513020172	mum cmos process
0.6513015777	mobile video
0.6512806428	offices
0.6512791328	evolvability
0.6512729681	pervasive service
0.6512518250	symbol level
0.6512507129	pay
0.6512382354	business units
0.6512327731	innovations
0.6512322992	magnetization
0.6512309019	please
0.6512303712	receiver operating
0.6512299612	holons
0.6512200023	conscious
0.6512129798	relationship
0.6512080967	lexicons
0.6512040875	shapley value
0.6511778298	socially
0.6511776947	monostatic
0.6511776947	politeness
0.6511751391	percentage
0.6511744754	compressed images
0.6511544590	educators
0.6511364180	repeated
0.6511329974	business requirements
0.6511317186	processing
0.6511308500	rounds
0.6511298553	classifier
0.6511185599	polynomial matrix
0.6511035971	restricted edge
0.6510974872	triangulated
0.6510958503	speech database
0.6510946696	complex tasks
0.6510906749	galerkin method
0.6510594275	ecrm
0.6510586287	web based applications
0.6510581121	sign
0.6510539524	modeling technique
0.6510364008	prior probability
0.6510343057	library and information science
0.6510303857	specialization
0.6510303201	mean average precision
0.6510228038	irrelevant
0.6509811376	rcbf
0.6509754401	sample
0.6509698791	network model
0.6509620770	strategy
0.6509587298	deduced
0.6509503571	draw conclusions
0.6509429817	electro mechanical systems
0.6509269199	selection process
0.6509153334	weaker
0.6508985469	circles
0.6508862904	variational approach
0.6508820508	simulation model
0.6508498028	world knowledge
0.6508327650	e mails
0.6508200023	identifiers
0.6508032201	students
0.6507983330	menus
0.6507977535	knowledge flow
0.6507875352	nuisance
0.6507772340	universally
0.6507652219	assembled
0.6507611000	tags
0.6507608014	information presentation
0.6507477051	whiteboards
0.6507345049	paced
0.6507085916	testers
0.6507058776	catadioptric
0.6506910214	manifold structure
0.6506888314	force
0.6506754903	channels
0.6506628496	enlargement
0.6506603444	frameworks
0.6506518496	month
0.6506364573	speakers
0.6506320768	process planning
0.6506199927	front
0.6505828458	pronunciation
0.6505820012	departments
0.6505813629	perhaps
0.6505738606	primers
0.6505700078	sought
0.6505338867	amplitude
0.6505337771	keys
0.6505260676	he
0.6505240668	frequency selective rayleigh
0.6505214175	reference implementation
0.6504960460	mechanism
0.6504862129	data exploration
0.6504813023	disturbed
0.6504801521	ecological systems
0.6504684268	2dlda
0.6504400465	network planning
0.6504334745	delay and packet loss
0.6504291997	requested
0.6504147618	wireless ad hoc and sensor networks
0.6504138977	medium
0.6504134747	small and medium enterprises
0.6504064468	twofold
0.6503897531	baseband
0.6503866009	climb
0.6503800394	learners
0.6503316080	wavelengths
0.6503095192	discriminative features
0.6502990588	naturally
0.6502982683	reduced
0.6502843202	couplings
0.6502528475	summarizes
0.6502497593	computational approaches
0.6502467490	behavioral model
0.6502299021	backscatter
0.6502174605	subcarriers
0.6502130874	memory based
0.6501986898	opportunities
0.6501903250	perfusion
0.6501861542	neural network architecture
0.6501701834	plaques
0.6501602803	executions
0.6501462875	region
0.6500750332	grown
0.6500672548	disjunct
0.6500610112	cooperative learning
0.6500505313	fastest
0.6500324082	information and communication technologies icts
0.6500093690	transporters
0.6500037548	thats
0.6499992195	trend analysis
0.6499895530	waterfilling
0.6499895530	circumference
0.6499895530	bead
0.6499737231	natural
0.6499699877	sacrificing
0.6499551795	alteration
0.6499504892	activity
0.6499441029	indicators
0.6499373969	ranking method
0.6499166758	convex function
0.6499060010	state transfer
0.6499030295	eliminated
0.6498919827	correctness properties
0.6498867735	awake
0.6498828194	projection methods
0.6498807975	heavy
0.6498613543	minor
0.6498563023	backwards
0.6498512550	competitive environment
0.6498502337	storage cost
0.6498462970	photogrammetry
0.6498462970	nonoscillatory
0.6498279533	correlated noise
0.6498221103	access delay
0.6498157000	frequently
0.6497940038	formalize
0.6497810622	emotionally
0.6497726920	reboot
0.6497657468	convex optimization problem
0.6497636085	temperatures
0.6497447505	retrieval performance
0.6497392996	cumulant
0.6497392996	nonadjacent
0.6497372120	monad
0.6497369716	throw
0.6497369716	epistemological
0.6497361270	operating modes
0.6497345377	backlogging
0.6497345377	systemes
0.6497144990	high latency
0.6497043558	evaluation metric
0.6496894228	causal model
0.6496867590	worst case execution time
0.6496738143	grow
0.6496600058	query complexity
0.6496468025	bit error rate performance
0.6496407434	pursuers
0.6496372700	regardless
0.6496227631	peer to peer p2p networks
0.6496076290	eleven
0.6495988526	chapters
0.6495963806	adjacent
0.6495958700	corrected
0.6495882339	probability measure
0.6495372519	integrability
0.6495372519	hunting
0.6495372519	knowledgebase
0.6495372519	staining
0.6495324554	searched
0.6495314867	colony
0.6495266119	pair
0.6495136092	aodv routing
0.6495010059	postural
0.6494990342	remarkable
0.6494936161	severely
0.6494845511	formations
0.6494836824	developing regions
0.6494798224	commit
0.6494573141	consequently
0.6494472229	genotypic
0.6494472229	flagged
0.6494472229	noch
0.6494301393	commitments
0.6494271136	convenience
0.6494230982	monotonicity
0.6494148864	unstable
0.6493970894	characters
0.6493955203	segmental
0.6493907204	time difference of arrival tdoa
0.6493840616	innovate
0.6493769812	five
0.6493728851	fetch
0.6493611025	higher speed
0.6493342969	opinionated
0.6493342969	allowance
0.6493342969	polarities
0.6493295350	unicyclic
0.6493295350	arity
0.6493295350	sporting
0.6492781000	turned
0.6492767668	training images
0.6492692961	buses
0.6492692961	funding
0.6492630982	summaries
0.6492575799	optimal capacity
0.6492477238	convergence property
0.6492426025	propensity
0.6492399976	real time video
0.6492136469	stabilization problem
0.6491886235	eeg based
0.6491707725	information
0.6491322593	parietal
0.6491202587	energy level
0.6491024138	treatment
0.6490871131	reshaping
0.6490871131	elongated
0.6490871131	malignancy
0.6490868971	spatial objects
0.6490842957	vehicles uavs
0.6490711884	shipments
0.6490711884	taggers
0.6490665398	convexity
0.6490641942	tails
0.6490290176	two way relaying
0.6490272864	encoded
0.6490235299	estimation technique
0.6490160095	famous
0.6490122992	categorisation
0.6490080548	network configurations
0.6489621796	analyses
0.6489458398	back propagation
0.6489207247	qualitatively
0.6488956211	modis data
0.6488934049	bursts
0.6488901888	expand
0.6488867735	quiescent
0.6488826729	behave
0.6488777001	predicated
0.6488735341	dynamic composition
0.6488419317	attenuated
0.6488070409	functional testing
0.6488057441	biases
0.6487746022	realistic simulation
0.6487673640	cet article
0.6487664822	formalized
0.6487522515	each
0.6487512111	spatial interaction
0.6487396540	naturalistic
0.6487375179	matching algorithms
0.6487254212	participated
0.6487160365	reconfiguring
0.6487055948	least square
0.6486968107	multiple transmit antennas
0.6486772764	enrich
0.6486726491	spectrum sensing in cognitive radio
0.6486072398	colors
0.6486063604	sensor field
0.6485813789	topologically
0.6485596335	respondents
0.6485367458	exhibited
0.6485208656	extant
0.6485110290	code design
0.6484981351	annotate
0.6484936161	possess
0.6484774717	density
0.6484670002	microprocessor
0.6484335225	oriented software development
0.6484016107	ordered list
0.6483974872	substructures
0.6483945670	information systems research
0.6483792659	dimensionality reduction techniques
0.6483703657	simplices
0.6483396013	species
0.6483192499	problem solver
0.6483173603	binary relations
0.6483047844	separations
0.6483047844	collapsing
0.6482612720	students learning
0.6482525009	success ratio
0.6482430127	greatest
0.6481967948	precisely
0.6481762130	sensation
0.6481446768	central server
0.6481291479	briefly
0.6481131968	detection accuracy
0.6481119849	prokaryotic
0.6481099268	class
0.6480967046	outcome
0.6480771621	segmentation accuracy
0.6480568156	visual exploration
0.6480524649	non repudiation
0.6480452691	tremendous
0.6480372972	materials
0.6480252557	contrasted
0.6480023920	positives
0.6479949308	posture
0.6479943876	measurements
0.6479940783	favorable
0.6479871942	control center
0.6479766860	state information
0.6479657320	demand
0.6479646336	degree
0.6479539988	upon
0.6479510409	complexities
0.6479505585	learn
0.6479290930	stationary points
0.6479226843	cones
0.6479118916	randomized algorithm
0.6479081258	existed
0.6478826113	reach
0.6478804386	pso algorithms
0.6478651548	improper
0.6478642132	amplified
0.6478419083	span
0.6478133309	request
0.6478009697	discretizations
0.6477827670	routing metrics
0.6477631468	needles
0.6477465271	virtually
0.6477392437	metamodels
0.6477056431	organisations
0.6477029009	waiting
0.6476886640	mathematic
0.6476876469	ims based
0.6476856672	false detection
0.6476842205	fixed
0.6476139036	mash up
0.6476059888	formats
0.6475963438	linearly
0.6475794807	service integration
0.6475662719	independent variables
0.6475216012	fpga device
0.6475089968	hyperplanes
0.6475036198	salience
0.6474973136	network selection
0.6474969019	trusted platform
0.6474946028	space efficient
0.6474880317	proneness
0.6474815928	uninformed
0.6474815928	microelectronic
0.6474411517	statement
0.6474364977	dynamical networks
0.6474346235	interference cancellation sic
0.6474308705	attentional
0.6474288303	v dd
0.6474134314	adaptive network based
0.6474059282	parametrized
0.6473900157	basis
0.6473776197	nonhomogeneous
0.6473738964	enactment
0.6473440753	analyse
0.6473348879	quantity
0.6473257691	large sparse
0.6473252239	estimator
0.6473193803	human computer interfaces
0.6473144452	tampering
0.6472927549	expression
0.6472709002	process oriented
0.6472641942	sharpness
0.6472634663	limited range
0.6472454393	constantly
0.6472184762	now
0.6471690345	tedious
0.6471645814	coordination function dcf
0.6471430452	precision
0.6471380817	listeners
0.6471341563	based feature selection
0.6471128829	some
0.6470920763	preliminary study
0.6470613194	attention
0.6470390650	sensitivities
0.6470329501	filled
0.6470254290	smallest
0.6470245746	ridges
0.6470193073	oscillating
0.6470122504	generalizations
0.6470032396	closed
0.6469901274	scheme
0.6469746094	backlight
0.6469686962	help desk
0.6469621647	advantageous
0.6469599279	complete
0.6469276498	raise
0.6469259868	decomposable
0.6469120744	lives
0.6469092032	contents
0.6468987118	defensive
0.6468949436	adaptive transmission
0.6468899206	power series
0.6468795480	arriving
0.6468592625	prerequisite
0.6468540360	emphasize
0.6468498578	fpga technology
0.6468497268	resolvable
0.6468457595	place
0.6468445985	quality of service qos
0.6468414201	ethnography
0.6468306751	furthermore
0.6467986510	correct answer
0.6467749314	exposing
0.6467690971	geometric interpretation
0.6467650014	queues
0.6467360253	attain
0.6467231216	supply
0.6467037657	arbitration
0.6466750908	fields
0.6466573455	contingencies
0.6466573455	piezo
0.6466474307	highly desirable
0.6466453470	palpation
0.6466335873	preferences
0.6466169087	traces
0.6466058130	load
0.6466020878	coexpression
0.6465973983	conventions
0.6465905595	directivity
0.6465730895	augment
0.6465501355	endpoint
0.6465317178	slice
0.6465273310	distributed real time systems
0.6465255339	incurred
0.6465149740	order
0.6465035168	discourses
0.6464930588	dominating
0.6464869064	normality
0.6464818499	spanning
0.6464813802	restrict
0.6464772340	certainty
0.6464761744	month period
0.6464694074	object representation
0.6464434764	preprocess
0.6464360154	literal
0.6464287016	resolutions
0.6464153334	governing
0.6463850475	positive
0.6463640275	you
0.6463590150	attempts
0.6463583643	map som
0.6463420198	backlog
0.6463420198	chained
0.6463344059	repetitions
0.6463330657	wake up
0.6463208297	systematic methodology
0.6462898482	primitives
0.6462888176	non dominated sorting
0.6462860664	p53
0.6462837720	indices
0.6462783870	low computational complexity
0.6462769644	numerical computations
0.6462596618	absorbing
0.6462545184	infusion
0.6462518303	latest
0.6462504582	sampling techniques
0.6462303298	polynomial function
0.6462111073	tedious and error prone
0.6462043445	accordingly
0.6462029500	algorithms
0.6462007898	void
0.6461885193	hierarchical architecture
0.6461827722	transmitting
0.6461755768	recruitment
0.6461351723	hydrologic
0.6461332230	catching
0.6461265760	monocular video
0.6461201845	rhythmic
0.6460979083	pancyclic
0.6460967088	helped
0.6460765900	dissolution
0.6460743239	long run
0.6460672755	environmental factors
0.6460221965	competencies
0.6460022093	released
0.6459835372	exercises
0.6459742037	singularities
0.6459635274	admission control algorithm
0.6459350234	segmented images
0.6459264012	j graph theory
0.6459222599	ncrnas
0.6459107380	support vector machine based
0.6459080100	summarize
0.6459021837	frequently encountered
0.6458912157	installations
0.6458738964	prognostic
0.6458678845	export
0.6458677666	meditation
0.6458203072	weeds
0.6458195107	data grid
0.6458110334	hoping
0.6458110334	tapped
0.6458110334	applicative
0.6458094857	learner model
0.6457881294	web interfaces
0.6457554593	preconditioners
0.6457534783	resonator
0.6457360253	suppress
0.6457351513	elevated
0.6457036295	degrade
0.6456987441	nanocrystals
0.6456890360	reciprocity
0.6456725726	course timetabling
0.6456686230	greyscale
0.6456667796	minimum error
0.6456583651	propagated
0.6456506665	data mining approach
0.6456504041	node
0.6456470672	bands
0.6456395230	mean squared error mse
0.6456346766	specifications
0.6456142290	mentions
0.6456010350	government services
0.6455821213	proper
0.6455688203	social semantic
0.6455498761	deliberate
0.6455366901	coming
0.6455225714	funded
0.6455193488	gyroscope
0.6455111499	receiver complexity
0.6454911536	computer graphics
0.6454884310	power electronic
0.6454728444	anatomic
0.6454555658	dynamic power consumption
0.6454533739	tester
0.6454508865	teenagers
0.6454372269	int j
0.6454306060	qsar models
0.6454095313	chattering
0.6454095313	suspect
0.6453893249	current voltage
0.6453728323	cues
0.6453702637	frame
0.6453686184	numerical examples
0.6453667243	high pass
0.6453640650	pitfalls
0.6453620918	regulatory modules
0.6453571834	aerial vehicle uav
0.6453526367	intends
0.6453516634	residents
0.6453488168	critical
0.6453414227	optical signal
0.6453410984	unclear
0.6453362045	organisational
0.6453301927	morphologies
0.6453301927	warm
0.6453293441	zur
0.6453214307	received increasing attention
0.6452938492	memory model
0.6452917115	runtime overhead
0.6452810556	whole body
0.6452564549	utilization
0.6452536906	discomfort
0.6452485212	incoming
0.6452330709	refer
0.6452002144	force microscopy
0.6451982340	adopt
0.6451967465	control policy
0.6451947913	sparsely
0.6451766047	human performance
0.6451743149	cars
0.6451701834	religious
0.6451680610	broken
0.6451401390	set
0.6451246229	specimen
0.6451136190	fulfilling
0.6450970907	scheme achieves
0.6450693352	fusion technique
0.6450520776	bandwidth
0.6450458265	heterogeneous data
0.6450417943	slippage
0.6450389704	stationary
0.6450386614	internal control
0.6450348024	language specific
0.6450100962	significantly outperform
0.6450008885	icons
0.6449980919	randomly
0.6449861351	optimization model
0.6449683464	argues
0.6449472234	cloud based
0.6449373455	alleles
0.6449363153	options
0.6449312685	machine learning approaches
0.6448997963	type
0.6448520318	brought forward
0.6448498991	geographical area
0.6448451151	occasionally
0.6448173949	clarification
0.6448171329	space partitioning
0.6448156598	constant
0.6448152816	characteristic
0.6448130313	disturbances
0.6447905811	sensory data
0.6447825312	technical efficiency
0.6447676725	protocols
0.6447640416	pioneering
0.6447360015	virtual camera
0.6447214137	hardware components
0.6446869349	analytical modeling
0.6446826702	fcm clustering
0.6446727614	descriptions
0.6446698112	khz
0.6446446420	dynamic stability
0.6446318138	impose
0.6446212681	designers
0.6446210737	tapping
0.6446094170	self disclosure
0.6446058238	partitions
0.6446004439	meant
0.6445785788	returns
0.6445745913	lowering
0.6445731688	essentially
0.6445730449	dynamic optimization
0.6445478206	flexion
0.6445380070	multicast service
0.6445144318	numbers
0.6445093204	interactive evolutionary
0.6444980781	asymptotically
0.6444966610	reduction rules
0.6444862180	network based
0.6444774465	skills
0.6444712633	tagged
0.6444572787	deadlocks
0.6444559596	general
0.6444320849	subframe
0.6444070966	analytical expressions
0.6443943149	fluoroscopy
0.6443898422	global optimum
0.6443849446	ongoing
0.6443425343	visual recognition
0.6443370053	point target
0.6443350486	tightly integrated
0.6443334920	preferable
0.6443324461	combining multiple
0.6443158803	code
0.6443142381	stabilize
0.6443097309	synthesized
0.6443067139	learning process
0.6443025485	activated
0.6442945418	molecular level
0.6442701567	authentication and key agreement
0.6442640709	documenting
0.6442529647	causation
0.6442529647	ancestors
0.6442510589	obsolescence
0.6442510589	conductors
0.6442510589	survivors
0.6442490836	return
0.6442106761	slower
0.6442106040	industrial case study
0.6442100955	straightforward
0.6441953571	pursuer
0.6441942410	rounding
0.6441629473	scenes
0.6441623915	broad
0.6441567600	probability based
0.6441430151	object level
0.6441347972	scientific community
0.6441329535	diversification
0.6441273247	primitive
0.6441070281	control unit
0.6440977598	partners
0.6440932416	solders
0.6440691082	establishes
0.6440653860	learns
0.6440589532	representing
0.6440506062	human reasoning
0.6440479109	immigrants
0.6440475723	distributed control
0.6440286904	superfamilies
0.6440271876	orchestrated
0.6440205260	complexity analysis
0.6439835372	articulated
0.6439667703	replacements
0.6439667703	submodels
0.6439667703	discs
0.6439616748	symmetries
0.6439440265	problem
0.6439422627	approche
0.6439410266	class svm
0.6439226860	videos
0.6439222538	scientific disciplines
0.6439200316	decade
0.6438943667	sits
0.6438943667	deren
0.6438726822	spatial configuration
0.6438678799	making decisions
0.6438450925	locked
0.6438297099	real world applications
0.6438245057	multimedia transmission
0.6438167665	arbiters
0.6438165394	judgement
0.6438146661	sampling scheme
0.6438130852	bayesian classification
0.6438104890	imply
0.6437907006	uncertainties
0.6437771019	reward function
0.6437484855	low resolution image
0.6437477142	fuzzy regression
0.6437475489	kill
0.6437301745	adequate
0.6437254941	matched
0.6437212165	organisms
0.6437209418	accounts
0.6437125834	multi interface
0.6436992948	excellent
0.6436921469	stretching
0.6436794609	claimed
0.6436645887	new product development
0.6436421610	utterance
0.6436273479	few
0.6436133098	consumes
0.6436008422	output current
0.6435963964	degradation
0.6435795734	point
0.6435609952	invert
0.6435609952	standardisation
0.6435567025	appealing
0.6435283531	order reduction
0.6435230528	resolved
0.6435055803	medical language
0.6435039587	planned
0.6434835372	incentives
0.6434778561	fractures
0.6434714565	certificates
0.6434617093	prefer
0.6434609862	compromise
0.6434460131	long
0.6434434764	noticeably
0.6434324551	polynomial time approximation
0.6434252350	frustration
0.6434217607	parasite
0.6434207417	agree
0.6434184288	widespread
0.6433962207	pretreatment
0.6433962207	sensorial
0.6433962207	definiteness
0.6433962207	inpatient
0.6433954431	methodology
0.6433644857	statistical properties
0.6433587004	recommend
0.6433441847	returned
0.6432837333	policies
0.6432796727	physicians
0.6432731733	causing
0.6432604533	layout problem
0.6432589205	web development
0.6432356907	collaborate
0.6432297520	sensory inputs
0.6431978745	intermetallic
0.6431941856	specialist
0.6431920338	adversary
0.6431888601	commercial
0.6431731939	arrival
0.6431353049	deviation
0.6431350203	leading
0.6431310722	completing
0.6431255145	relation
0.6431099804	organizational performance
0.6430991473	clarify
0.6430957246	greedy approach
0.6430924767	spur
0.6430924767	obstruction
0.6430911516	directives
0.6430911516	wrapped
0.6430790982	favor
0.6430727378	alternative
0.6430578824	cognitively
0.6430527876	evolutions
0.6430473129	privacy preserving data
0.6430377985	generally accepted
0.6430342052	subunit
0.6430342052	substitutable
0.6430342052	incipient
0.6430342052	methanol
0.6430242178	prosthesis
0.6430231143	buffering
0.6430214584	goal
0.6430149372	sessions
0.6430090493	related tags
0.6430026996	foundational
0.6429912699	central pattern
0.6429541853	learnt
0.6429285443	neglect
0.6429015162	uniformity
0.6428909492	datatype
0.6428885100	reversing
0.6428724306	target
0.6428653477	draws
0.6428054531	four
0.6427951677	measurement study
0.6427927320	requirement
0.6427897060	enjoyment
0.6427773401	synchronizing
0.6427705199	older people
0.6427573080	ar model
0.6427464368	studies
0.6427423165	neurons
0.6427412332	time series prediction
0.6427389340	computer supported
0.6427370154	intervals
0.6427151227	resolution
0.6427103449	java code
0.6427017607	lease
0.6427017607	citing
0.6426800074	floods
0.6426504465	changeable
0.6426504465	sinusoids
0.6426385693	ieee 754
0.6426321424	grains
0.6426301284	distinguisher
0.6426247303	general graphs
0.6426130260	synapses
0.6426062253	clipping
0.6426048276	readily
0.6425932642	relational learning
0.6425833018	infinity
0.6425628687	logic based
0.6425490652	intend
0.6425480671	target region
0.6425383767	ppi network
0.6425373891	users satisfaction
0.6425262449	philosophies
0.6425262449	mammals
0.6425262449	confidences
0.6425103162	preserved
0.6425037688	craft
0.6424973961	requirements
0.6424830911	pieces
0.6424815307	subjected
0.6424583162	training patterns
0.6424437695	direction
0.6424402627	vehicles
0.6424265209	rls algorithm
0.6424240844	clusters
0.6424231696	image blocks
0.6424142243	catalysts
0.6423741457	dendrites
0.6423741457	lethal
0.6423449118	cameras
0.6423380301	scholars
0.6423356983	moderate
0.6423341183	stations
0.6423253058	seamlessly
0.6423168319	generational
0.6423168319	suspicion
0.6423107378	dominated
0.6423046014	engineering projects
0.6422954815	hardwaresoftware co
0.6422928563	beamformer
0.6422849364	transitions
0.6422740459	expose
0.6422670870	consolidated
0.6422586266	tensors
0.6422541353	video data
0.6422475689	complex queries
0.6422356705	drastically
0.6422232228	impacts
0.6421974997	group dynamics
0.6421862980	audition
0.6421862980	nonstationarity
0.6421795893	preset
0.6421741385	pedigree
0.6421720524	e health
0.6421664664	hearts
0.6421560127	basins
0.6421555557	sorted
0.6421483957	insights
0.6421469826	adequately
0.6421390807	streamlines
0.6421333077	lectures
0.6421158406	recurrences
0.6421158406	sobre
0.6421133369	virtual platform
0.6421121439	fits
0.6420882582	therefore
0.6420759268	kernel parameters
0.6420610640	pour
0.6420535105	benchmark problems
0.6420508839	judgments
0.6420497192	tabular
0.6420477859	wide
0.6420094028	information privacy
0.6419953673	process monitoring
0.6419821148	vibrating
0.6419784673	partially observable markov
0.6419674149	tonic
0.6419592998	pareto efficient
0.6419306002	successful transmission
0.6419045099	immediately
0.6418903943	caches
0.6418880550	exchanged
0.6418853755	deformation field
0.6418699662	heater
0.6418275835	information system gis
0.6418135563	conceptualizations
0.6418075869	normal
0.6417872800	relaying protocol
0.6417859923	digital technologies
0.6417679136	outlined
0.6417564659	ends
0.6417506887	optimal order
0.6417417985	publicly
0.6417380817	aesthetic
0.6417309583	equally
0.6417284497	fuzzy observer
0.6417150764	shapes
0.6417130301	prospective
0.6416959698	infrared images
0.6416860334	globalized
0.6416860334	industrys
0.6416818629	open geospatial
0.6416552486	sadness
0.6416498565	power control scheme
0.6416484749	satellites
0.6416300715	phenotypic
0.6416167873	set theoretic
0.6415991320	on
0.6415894585	aligned
0.6415798425	hope
0.6415790607	limit
0.6415621422	least mean square lms
0.6415220564	expect
0.6415207989	seed
0.6415148866	episodes
0.6415120947	inference algorithm
0.6415119282	significance
0.6415081499	binary decision
0.6414970340	mobile social
0.6414968135	robustness analysis
0.6414927154	choose
0.6414902806	formatted
0.6414901421	situation
0.6414520745	induced delay
0.6414393913	association study
0.6414205203	self organisation
0.6414111894	magnetohydrodynamic
0.6413886520	fault analysis
0.6413762104	simplicity
0.6413674093	wireless technology
0.6413665700	formal modeling
0.6413410913	lungs
0.6413387908	ratio test
0.6413380301	transceivers
0.6413295540	immobilized
0.6413295540	variates
0.6413295540	informativeness
0.6413295540	binarized
0.6413295540	encryptiondecryption
0.6413295540	founding
0.6413226600	expressions
0.6412958416	deletion
0.6412949216	diversities
0.6412913831	restarts
0.6412820333	destination
0.6412770756	network architectures
0.6412731141	latency
0.6412518303	stakeholders
0.6412450117	global routing
0.6412448331	authentic
0.6412405300	resp
0.6412305676	exclusively
0.6412268660	patterns
0.6412054709	supportive
0.6411938450	three dimensional
0.6411769462	founded
0.6411764720	parameter
0.6411691465	acoustically
0.6411576614	evader
0.6411565599	paradigms
0.6411423345	dataset consisting
0.6411380838	consistent
0.6411238524	forward looking
0.6411099077	significantly improves
0.6410812477	chunk
0.6410713594	sensorimotor
0.6410535251	uml class
0.6410445694	defocus
0.6410445694	alphabetic
0.6410429386	sur
0.6410183516	non coding rnas
0.6410148866	relaxations
0.6410067376	invariant set
0.6409984150	gps data
0.6409905483	worst case execution
0.6409740373	one class svm
0.6409478345	oneself
0.6409196250	failed
0.6409099086	sequences
0.6409067863	unsuitable
0.6408897810	conversations
0.6408803654	approaching
0.6408736655	dynamic epistemic
0.6408454687	credentials
0.6408241302	risks
0.6408001727	task graph
0.6407933709	computing grid
0.6407909616	launched
0.6407827997	mutated
0.6407636843	gather
0.6407564884	destination node
0.6407464861	comprised
0.6407371855	send
0.6407319637	tumours
0.6407312376	views
0.6407157378	recognition tasks
0.6406988652	new zealand
0.6406933898	proxies
0.6406911956	benchmark data sets
0.6406876533	poster presents
0.6406689763	permeability
0.6406676364	aggressive
0.6406664339	autonomy
0.6406536970	drought
0.6406224855	hidden information
0.6406137431	barriers
0.6406135531	software applications
0.6405848696	instance
0.6405786509	decision tree based
0.6405745518	kinetic parameters
0.6405605258	data
0.6405287890	parasites
0.6405287890	abandonment
0.6405129710	convincing
0.6405122980	sight
0.6405113251	service oriented approach
0.6405044725	experts
0.6405030554	lock based
0.6405008363	dichotomous
0.6405008363	hurt
0.6404813520	attitudinal
0.6404813520	referent
0.6404813520	coercive
0.6404813520	mortar
0.6404700555	computations
0.6404690246	algebraic properties
0.6404688247	dimension
0.6404635707	major drawback
0.6404557027	manufacture
0.6404511725	developments
0.6404456216	assignment strategy
0.6403973237	parallel algorithms
0.6403964881	competitive analysis
0.6403870936	match
0.6403738964	energetic
0.6403667703	audiovideo
0.6403643461	contradiction
0.6403380301	redesign
0.6403349353	effective bandwidth
0.6403334370	micromachined
0.6403334370	tilting
0.6403325827	test sequence
0.6403283655	adapted
0.6403183524	field studies
0.6403179981	trajectories
0.6403161664	summarized
0.6403151724	decomposed
0.6403021240	local scale
0.6403005868	shell
0.6402846350	visually similar
0.6402772126	depth image
0.6402739040	configured
0.6402665687	educational environment
0.6402604312	pose
0.6402139959	derivations
0.6401933807	von
0.6401646235	navigate
0.6401597314	heterogeneous computing
0.6401419975	pixel values
0.6401417076	careers
0.6401238919	performance
0.6401212422	submatrix
0.6401027394	objectives
0.6401025539	movement
0.6400982655	customer requirements
0.6400885593	representations
0.6400730675	absolute differences
0.6400608160	cached
0.6400165990	rootkits
0.6400143672	markup language xml
0.6400067889	data reuse
0.6399817436	derives
0.6399672368	tourists
0.6399667410	orders
0.6399596946	losses
0.6399434764	hitherto
0.6399254803	intracellular
0.6399250992	rarely
0.6399046842	immediate
0.6398995343	abandon
0.6398917545	statements
0.6398910318	next generation internet
0.6398857769	meets
0.6398632024	channel diversity
0.6398626929	illusion
0.6398560711	behavior
0.6398481911	fully dynamic
0.6398246795	version
0.6398237324	adaptation mechanisms
0.6397962560	communication scheme
0.6397750699	based routing
0.6397729813	classifiers
0.6397667232	polynomials
0.6397650145	visuospatial
0.6397360932	benchmark instances
0.6397330048	published
0.6397291317	principles
0.6397270974	decentralization
0.6397256648	tailored
0.6397047455	rectangles
0.6396882091	p2p video
0.6396750107	load balancing algorithm
0.6396588963	structure
0.6396572016	tracked
0.6396551715	year
0.6396392544	profiles
0.6396363349	indeed
0.6396266693	reviewed
0.6396257276	unreasonable
0.6396257276	rodent
0.6396257276	undetectable
0.6396257276	ergodicity
0.6396257276	humancomputer
0.6396253749	traffic classes
0.6396195343	evaluative
0.6396149165	densities
0.6396107515	controls
0.6396033981	profession
0.6396028054	search task
0.6396024726	cad tools
0.6395988650	frequency division multiplexing ofdm
0.6395944631	control problems
0.6395921498	predicts
0.6395867690	frequency spectrum
0.6395843996	alleviating
0.6395835510	alumina
0.6395779715	stained
0.6395725699	hold
0.6395330879	nearest neighbor algorithm
0.6395315832	spice simulation
0.6395167780	web service based
0.6395148186	passed
0.6395096581	quadratic function
0.6394863516	b tree
0.6394835041	antigens
0.6394832577	medications
0.6394832577	clockwise
0.6394799113	wider
0.6394639385	error
0.6394432618	speak
0.6394142318	maximum size
0.6394051158	familiar
0.6393972635	paper
0.6393941400	arbitrary
0.6393908013	beautiful
0.6393428699	inability
0.6393069333	developers
0.6392816371	wireline
0.6392696314	campuses
0.6392501652	jedoch
0.6392501652	prompting
0.6392462401	domain
0.6392329535	communicative
0.6392210440	buying
0.6391982842	duration
0.6391920916	sulci
0.6391881699	initial conditions
0.6391861228	vantage
0.6391822424	gaits
0.6391692470	simulated
0.6391581671	service disruption
0.6391552385	outlines
0.6391294813	video copy
0.6391293172	doctor
0.6391220767	periodogram
0.6391214607	consumed
0.6391196786	degrees
0.6391007454	fractions
0.6390895091	architecture level
0.6390860018	reflects
0.6390643110	encode
0.6390432358	near
0.6390408595	formal definition
0.6390384525	slip
0.6390297852	empirically
0.6390133327	work stealing
0.6390016526	occupant
0.6389997468	metaphorical
0.6389911146	hourly
0.6389665223	technique
0.6389458336	achievable
0.6389361952	reused
0.6389347371	sequel
0.6389345941	artifacts
0.6389280520	shorter
0.6389037080	analyzers
0.6388402812	vectors
0.6388276293	multiples
0.6388152970	coatings
0.6388152970	flips
0.6388152970	fixture
0.6388086009	saccadic
0.6387884881	complexity
0.6387768784	taught
0.6387755810	flow patterns
0.6387665758	watermarking method
0.6387649414	personalized web
0.6387603723	party
0.6387588128	software engineering research
0.6387440186	families
0.6387406559	trace analysis
0.6387332867	children with autism
0.6387267174	recovered
0.6387102382	actual
0.6387071583	viability
0.6387021128	integer programming problem
0.6386937640	mutable
0.6386904459	slack
0.6386757453	low memory
0.6386715313	findings suggest
0.6386656120	bright
0.6386619469	experiencing
0.6386454882	j math anal
0.6386374634	object shape
0.6386310076	platforms
0.6386064414	computational cost
0.6385801895	product codes
0.6385691242	particles
0.6385623402	transients
0.6385532122	longitudinal study
0.6385008363	transports
0.6385008363	hurdles
0.6384909225	interpolation method
0.6384539837	conjunctions
0.6384428383	manageability
0.6384307207	waveform
0.6384128874	emitters
0.6384030913	counter intuitive
0.6383574139	enormous
0.6383525252	seconds
0.6383524383	short and long term
0.6383365466	translation invariant
0.6383037544	sion
0.6382923943	flooded
0.6382923943	mandates
0.6382747281	excavation
0.6382684236	poor
0.6382576117	testing tools
0.6382468897	blades
0.6382132446	devise
0.6382024552	robots
0.6382010091	hours
0.6381766941	ary
0.6381686045	e science
0.6381397876	kernels
0.6381331600	fabrics
0.6381307149	attempted
0.6381175999	custom built
0.6380891605	supervisors
0.6380766117	suction
0.6380612980	programmatic
0.6380612980	oversight
0.6380612980	lightly
0.6380548016	random sequence
0.6380479914	elimination algorithm
0.6380427946	loss
0.6380305997	approximate solution
0.6380237913	see
0.6380023314	induce
0.6379979586	especially
0.6379688870	successor
0.6379448159	exposed
0.6379261675	neural fuzzy
0.6378932948	prescribed
0.6378887922	synthesize
0.6378848123	property
0.6378789586	reduction techniques
0.6378645364	judgment
0.6377789076	dampers
0.6377753011	spammers
0.6377752528	temporal information
0.6377719913	orientation distribution
0.6377717685	visual representation
0.6377676556	resource scheduling
0.6377335796	bit
0.6377247164	repulsion
0.6377247164	pulling
0.6376980579	occurrences
0.6376773375	learning ability
0.6376655481	paradigm
0.6376440923	incompletely
0.6376371246	motion pattern
0.6376369208	shed
0.6376223061	distribute
0.6375794234	data packets
0.6375759489	user performance
0.6375197975	models
0.6375188414	training algorithm
0.6375040517	agnostic
0.6374912853	peers
0.6374652420	error rate performance
0.6374607767	telecommunication systems
0.6374522024	namespace
0.6374430874	n4
0.6374430874	transitioning
0.6374400969	prepared
0.6374281140	constructions
0.6374165911	sintering
0.6374165911	loadings
0.6374165911	complementarities
0.6374073974	regime
0.6373854415	direct interaction
0.6373592390	motivate
0.6373499430	part
0.6373485031	know
0.6373457964	mould
0.6373334985	nonnegativity
0.6373243960	synthesis problem
0.6373172947	key factors
0.6373107589	workplaces
0.6373050343	niching
0.6372861894	collinear
0.6372500680	justified
0.6372313701	obeying
0.6372132446	percent
0.6372020816	factories
0.6372020816	reconfigurability
0.6371597674	regulating
0.6371402420	positive solutions
0.6371289628	echoes
0.6371217018	automatically extracting
0.6371209168	pre processing step
0.6371063851	temporal databases
0.6371042735	homographies
0.6371042735	trivariate
0.6370926785	manipulate
0.6370829805	coordinates
0.6370778253	wireless bandwidth
0.6370750345	eparticipation
0.6370750345	kcalmol
0.6370481314	differentiate
0.6370215977	femur
0.6370168843	pronouns
0.6370155582	assumes
0.6370042365	clock signal
0.6369916761	six
0.6369893745	expression patterns
0.6369852651	mobile user
0.6369779715	numbering
0.6369755612	soft input
0.6369561146	elaborate
0.6369519987	trainees
0.6369467325	multiple agents
0.6369328450	learned
0.6369316770	systematic errors
0.6369293022	target object
0.6369238182	maximally
0.6368783918	latch
0.6368761256	roadway
0.6368744257	delay independent
0.6368513686	agent systems
0.6368405935	2010
0.6368384471	tiles
0.6368327229	suppressing
0.6368191766	language owl
0.6368053096	concentrate
0.6367884881	support
0.6367688505	biomolecules
0.6367589136	customer relationship
0.6367577921	frame rates
0.6367311574	usage
0.6367168853	dynamically adjust
0.6366967918	information supplementary data
0.6366739515	representative
0.6366665788	recent years
0.6366636469	influence
0.6366609763	management scheme
0.6366569718	examinations
0.6366500394	drawings
0.6366456770	incorporate
0.6366416755	fetching
0.6366347174	favorably
0.6366295827	lowpass
0.6366295827	ferromagnetic
0.6366295827	diverging
0.6366096049	registration accuracy
0.6366064388	fonts
0.6366028157	hyperlinks
0.6365602888	sharing scheme
0.6365553303	multiple scales
0.6365533026	dollars
0.6365321628	presenting
0.6365296142	sale
0.6365210514	sacrifice
0.6365172257	optical packet
0.6365047301	self adaptive
0.6364801004	decision process
0.6364661138	highly distributed
0.6364655365	analogies
0.6364326698	intelligent transportation
0.6364138890	solely
0.6364043506	wimax network
0.6364042919	overlapped
0.6363998133	molecular structure
0.6363869033	region of interest roi
0.6363748101	automatic test
0.6363728817	information and communication technologies ict
0.6363706131	immune network
0.6363535701	analysis method
0.6363457227	restrictions
0.6363427160	user study
0.6363264388	chromosomal
0.6363264388	subscriptions
0.6362926067	resonances
0.6362877638	associates
0.6362721494	continuous phase
0.6362588934	order derivatives
0.6362242043	throughput performance
0.6362193181	circuit
0.6362076440	checked
0.6361990632	party computation
0.6361823749	nonclassical
0.6361759978	aim
0.6361616074	image content
0.6361590354	plume
0.6361251652	told
0.6361251652	paradigmatic
0.6361219143	hinges
0.6361191959	quadrature phase
0.6361106833	shape models
0.6360994711	clinical studies
0.6360833590	user controlled
0.6360776105	quantifiable
0.6360680870	formula
0.6360658539	wakeup
0.6360620601	sending
0.6360577419	capability
0.6360411986	generality
0.6360321223	pointed
0.6360210562	eccentricity
0.6360113048	maturation
0.6360040517	downward
0.6360012097	auditors
0.6359918468	questions
0.6359802079	seeds
0.6359742085	case
0.6359684737	rules
0.6359600299	successful
0.6359557263	innovativeness
0.6359207024	ij
0.6358589200	participate
0.6358581146	much
0.6358558033	human health
0.6358431362	increasing
0.6358401851	context adaptive
0.6358289317	contexts
0.6358174662	scalp
0.6358087260	trna
0.6358070912	decided
0.6357944403	fnirs
0.6357941355	consideration
0.6357915423	modelling approach
0.6357840783	succeed
0.6357531635	divide
0.6357229676	locks
0.6357140727	neighbors
0.6356975133	billion
0.6356958786	inevitably
0.6356938002	accessed
0.6356551183	bandwidth estimation
0.6356440923	disable
0.6356294438	workflow scheduling
0.6356290517	slopes
0.6356246626	adjustments
0.6356186189	focus
0.6356156248	formal properties
0.6356124613	triggers
0.6355986401	delaying
0.6355986401	mixes
0.6355986401	identifications
0.6355744039	surfaces
0.6355459585	modelling framework
0.6355430279	strengths
0.6355382446	obvious
0.6355212532	spatial discretization
0.6355015982	picks
0.6354968509	curves
0.6354968283	fading environments
0.6354925851	technologies
0.6354880717	geographical location
0.6354823172	cycles
0.6354780098	devised
0.6354754766	formatting
0.6354702324	computer science education
0.6354476946	major obstacle
0.6354412609	parallel implementation
0.6354201532	aforementioned
0.6353987232	question
0.6353757362	ratios
0.6353461798	test patterns
0.6353385030	mobile phone based
0.6353242994	neighboring
0.6353174662	physicochemical
0.6352956593	ancestry
0.6352731477	real time scheduling
0.6352723473	intelligent tutoring system
0.6352666796	recommended
0.6352649035	cultures
0.6352557431	satellite systems
0.6352221255	translate
0.6352184216	expectations
0.6352122878	written
0.6351860862	automatically identifying
0.6351781401	discover
0.6351305785	stochastic control
0.6351076229	observations
0.6351062359	render
0.6350957345	filtering technique
0.6350854961	obligations
0.6350786922	changing
0.6350777950	visual display
0.6350744405	validity
0.6350717675	iterations
0.6350534027	based face recognition
0.6350496352	spins
0.6350331307	personnel
0.6350144119	recursion
0.6350078897	influencing
0.6350023314	broader
0.6349976449	software processes
0.6349970711	epigenetic
0.6349970711	throttle
0.6349970711	compressors
0.6349854258	limiting factor
0.6349850585	binary particle swarm
0.6349849103	parameter free
0.6349784721	online video
0.6349768777	supported
0.6349592451	nanostructures
0.6349496678	video segments
0.6349221561	portfolios
0.6349194559	structural features
0.6348706683	nature
0.6348502380	importance
0.6348479499	barely
0.6348479499	disciplined
0.6348479499	educate
0.6348344570	workflow patterns
0.6348005493	faster
0.6347948657	latches
0.6347925729	viable
0.6347596282	fmri
0.6347575818	back end
0.6347331548	deceleration
0.6347175755	analogues
0.6347134048	embodiment
0.6347017530	extracts
0.6347017223	balancer
0.6346907923	web access
0.6346868784	enhancements
0.6346840567	servers
0.6346776675	self timed
0.6346710636	step
0.6346637220	impractical
0.6346401462	unit circle
0.6346192381	engaged
0.6346108051	prototype
0.6346007944	workshops
0.6345800611	clues
0.6345196515	countermeasures
0.6345148006	executives
0.6344867421	rigid objects
0.6344860337	decline
0.6344699486	traffic analysis
0.6344699422	cross layer approach
0.6344699329	emerge
0.6344585628	invention
0.6344413852	boundaries
0.6344292269	entire image
0.6344154318	practical experience
0.6344072192	concrete structures
0.6343977960	coarsely
0.6343957212	additional features
0.6343948164	ubiquitous learning
0.6343907044	strictly convex
0.6343877859	candidate regions
0.6343875654	multi dimension
0.6343818287	indentation
0.6343541705	report
0.6343518049	pillars
0.6343369055	neighbours
0.6343360198	ties
0.6343129064	pheromone
0.6343094583	dimensionality
0.6343025011	negotiators
0.6342857324	operating environment
0.6342770753	explicit formulas
0.6342706219	previous studies
0.6342700623	geometrically
0.6342536068	harmonic analysis
0.6342522419	simulation optimization
0.6342500908	best effort
0.6342494788	magnets
0.6342434564	ranges
0.6342409521	standardised
0.6342315369	refine
0.6342310528	intersecting
0.6342154340	indispensable
0.6341859152	verification tool
0.6341823960	human operator
0.6341798552	instabilities
0.6341736986	color feature
0.6341570780	kinematical
0.6341570780	lexico
0.6341410673	complex dynamical
0.6341395211	vertebra
0.6341387624	period
0.6341327748	both
0.6341313096	expense
0.6341162272	sequence classification
0.6341099875	classrooms
0.6341070780	striatal
0.6340740374	decreased
0.6340693876	input sequences
0.6340597830	knots
0.6340328925	referees
0.6340183193	remapping
0.6339927343	circumstances
0.6339738717	signal to noise ratios
0.6339715819	damping
0.6339372231	information service
0.6339287710	decades
0.6339218035	discontinuity
0.6339130019	removed
0.6338535332	reproduce
0.6338108224	area networks
0.6338107227	rotating
0.6338090814	special emphasis
0.6337977896	computing platform
0.6337957467	video on demand
0.6337814041	parties
0.6337803408	concerning
0.6337737447	subunits
0.6337647288	rate
0.6337606353	commercialization
0.6337606353	valleys
0.6337078509	detectors
0.6337036364	dynamically generated
0.6337031283	position
0.6336858956	receive
0.6336684861	personalized learning
0.6336577391	feature mapping
0.6336419480	linear algebraic
0.6336343225	attacks
0.6336322565	validations
0.6336227667	sinusoidal
0.6335939395	strong
0.6335828869	us
0.6335575990	p2p live
0.6335445320	forces
0.6335083072	radar data
0.6335002846	paragraphs
0.6335002846	probit
0.6335002846	nonconforming
0.6335002846	handsets
0.6335002846	mismatching
0.6334981699	und
0.6334592259	quantities
0.6334492529	classifier systems
0.6334488916	appropriately
0.6334439747	literature
0.6334321418	rigid motion
0.6334258733	symbols
0.6334138890	allocate
0.6334104015	matrix representations
0.6334066032	independent
0.6333938923	graphical modeling
0.6333491137	modulations
0.6333377326	explains
0.6333354125	extraction method
0.6333179227	formed
0.6333026701	cluster size
0.6332663730	branch and cut
0.6332471211	medial temporal
0.6332443007	user group
0.6332409521	interlinked
0.6332262851	calculations
0.6332146548	faults
0.6332113287	disgust
0.6331821921	annotators
0.6331726532	termed
0.6331669512	egress
0.6331574241	rivers
0.6331544950	blind source
0.6331488437	grows
0.6331123188	software organizations
0.6330874915	issues
0.6330871708	map matching
0.6330864841	decides
0.6330846897	cr users
0.6330845233	tear
0.6330804044	transferability
0.6330606282	poles
0.6330514429	constellation size
0.6330295465	mimics
0.6330102983	scrolling
0.6330053034	distortion measure
0.6330004624	mentioned
0.6329834934	number
0.6329707897	distribution
0.6329701029	extensibility
0.6329637870	illustrates
0.6329540428	packed
0.6329426838	satisfiable
0.6329424547	disciplines
0.6329196020	resource limitations
0.6329146517	kinetic model
0.6328877133	ebay
0.6328716791	functioning
0.6328709136	programs
0.6328597414	actuating
0.6328597414	legitimacy
0.6328597414	qualifications
0.6328486845	amenable
0.6328486015	predictable
0.6328290715	beamwidth
0.6328290715	reflectances
0.6327985738	avoided
0.6327870581	grasping
0.6327782581	ill posed problems
0.6327610708	enterprise network
0.6327606353	denoise
0.6327606353	displaced
0.6327552015	constraining
0.6327470435	source channel
0.6327449737	ant colony system
0.6327436580	sampled
0.6327094236	interaction forces
0.6327029454	significantly reduces
0.6326892299	image sensors
0.6326862429	numerical algorithms
0.6326858765	aimed
0.6326387317	fuzzy similarity
0.6326330765	electronic health
0.6326280584	pointcuts
0.6326192457	documented
0.6326141878	stores
0.6325447519	original image
0.6325375342	optimal solutions
0.6325310538	extendible
0.6325310538	commute
0.6325303195	high level description
0.6325269958	tightly
0.6325127975	simplification
0.6325038589	online in wiley interscience wwwintersciencewileycom doi
0.6324872092	it
0.6324812323	spatial characteristics
0.6324604724	optimization approach
0.6324475120	criterion
0.6324429227	offered
0.6324386384	clarity
0.6324299604	user context
0.6324210970	resampled
0.6324210970	adaptiveness
0.6324204780	cities
0.6324052149	parallel program
0.6324025558	countries
0.6324001734	highlights
0.6323914530	refers
0.6323865849	simple closed form
0.6323805918	breakdowns
0.6323793002	keyframes
0.6323793002	recipes
0.6323793002	labelings
0.6323613347	predicting protein
0.6323544569	accepted
0.6323540428	diagnoses
0.6323341668	assume
0.6323293002	complaints
0.6323098001	poorly
0.6322861143	device
0.6322816812	shoppers
0.6322768600	preserving projections
0.6322763337	jammers
0.6322473582	spatial coherence
0.6322372199	compose
0.6322133307	patents
0.6322039537	connections
0.6322008247	restructured
0.6322008247	dendrogram
0.6322008247	phenology
0.6322008247	flexural
0.6322008247	loudness
0.6322001606	regulators
0.6321977205	atypical
0.6321977205	minimalist
0.6321829784	we
0.6321595762	hence
0.6321535477	records
0.6321510249	none
0.6321341076	quantitative comparison
0.6320897492	selection algorithms
0.6320876363	date
0.6320833689	hard
0.6320636173	window based
0.6320595473	questionnaires
0.6320467844	topics
0.6320408266	arise
0.6320312169	hypotheses
0.6320271502	spent
0.6319739297	deposits
0.6319642137	embed
0.6319580543	lineage
0.6319468300	papers
0.6319258732	operating range
0.6319145033	flattened
0.6319145033	desirability
0.6319129064	polarized
0.6318888633	relay scheme
0.6318789714	operator
0.6318787993	effort
0.6318750234	spurious
0.6318678909	frames
0.6318553900	channel noise
0.6318434844	acquisitions
0.6318415561	hardware based
0.6318274492	key challenge
0.6318176212	statistically
0.6318144084	software intensive
0.6317959520	control protocol
0.6317764274	strategies
0.6317732153	colony optimization
0.6317704859	meaningful
0.6317588969	limits
0.6317566816	2c
0.6317503120	millions
0.6317285315	limited
0.6317262065	low computational cost
0.6316522711	impressions
0.6316387610	tackled
0.6316053183	positively
0.6316045655	machine learning algorithm
0.6315982368	infected
0.6315966249	flow fields
0.6315907332	residuals
0.6315696330	sorts
0.6315640308	decentralized manner
0.6315621087	image data
0.6315612418	linear time varying
0.6315609732	interpreted
0.6315548368	prolongation
0.6315511211	rrna
0.6315439824	disrupted
0.6315350827	least squares regression
0.6315348032	lookups
0.6315310538	neighbourhoods
0.6315224169	spatio temporal features
0.6315193049	constructors
0.6315193049	catalogues
0.6315091005	constraint optimization
0.6315005000	proofness
0.6314714213	hinge
0.6314596496	hwsw co
0.6314317310	competitive market
0.6314241959	harm
0.6314240665	genus
0.6314055550	draw
0.6313453123	datatypes
0.6313444099	propensities
0.6313316001	radio signal
0.6313108899	indecomposable
0.6312950831	energy supply
0.6312541231	connected
0.6312477841	molecules
0.6312385402	syllable
0.6312225068	moderator
0.6312029704	input
0.6311996950	conveying
0.6311915155	nonseparable
0.6311915155	believability
0.6311915155	replications
0.6311826662	emotions
0.6311570236	proposals
0.6311559801	high complexity
0.6311553289	back propagation neural
0.6310969468	temporal sequence
0.6310861780	visiting
0.6310861780	academics
0.6310831388	signal
0.6310680561	multi processors
0.6310422128	execute
0.6310420027	yaw
0.6310360546	steered
0.6310338358	two way relay
0.6310226856	discharges
0.6310112291	energy function
0.6310083751	basis sets
0.6310072662	image statistics
0.6310020182	mobile telecommunications
0.6309958479	nucleosome
0.6309928500	manufacturers
0.6309917818	subjects
0.6309895415	methods
0.6309765808	layouts
0.6309385977	clusterheads
0.6309362198	assumption
0.6309242849	single gene
0.6309063764	benign
0.6309026732	extensive simulations
0.6308881595	internet routers
0.6308796804	sense
0.6308666751	performance improvements
0.6308567158	searchers
0.6308540766	last mile
0.6308161303	stylus
0.6308154954	forging
0.6307857183	reminders
0.6307787851	terrains
0.6307703796	worldwide interoperability for microwave access
0.6307681507	task
0.6307664721	approach
0.6307648110	symbol interference isi
0.6307604787	programmable gate arrays fpgas
0.6307522199	optimum design
0.6307437853	angles
0.6307310792	process
0.6307193238	stated
0.6306994768	arrive
0.6306970946	amplify and forward
0.6306805115	inflow
0.6306703371	spare
0.6306458385	service based
0.6306271396	thin films
0.6306076765	input values
0.6305979974	resulted
0.6305819637	supremum
0.6305819637	radiologist
0.6304851293	contributed
0.6304833988	scenario
0.6304824735	boundary value problem
0.6304677500	continuous state
0.6304236577	typing
0.6304157265	lines
0.6304004393	transport networks
0.6303977944	communal
0.6303948373	effect
0.6303874932	commonality
0.6303812707	donnees
0.6303809466	learning strategy
0.6303474150	amortized
0.6303188509	denoted
0.6303154525	culling
0.6303081980	inherent
0.6302922242	interests
0.6302533398	sensed
0.6302518201	acceptable
0.6302474617	effects
0.6302345496	organizational knowledge
0.6302240624	potential
0.6302184702	gamers
0.6302149986	sub band
0.6302146274	terms of linear matrix inequalities lmis
0.6302121525	hundred
0.6302088241	regarding
0.6301939456	rate estimation
0.6301859716	cumulants
0.6301833971	dans cet
0.6301743779	demodulation
0.6301717646	tunnels
0.6301707782	axonal
0.6301477606	axioms
0.6301291864	graph construction
0.6301287196	uber
0.6301269662	length
0.6301242705	organizational factors
0.6301103100	pull based
0.6301083679	web image
0.6300949714	characteristics
0.6300865040	interesting
0.6300709115	roles
0.6300676837	last level cache
0.6300135206	divided
0.6300122774	working
0.6300082490	played
0.6299930584	equations
0.6299828575	renderings
0.6299828575	hybrids
0.6299731394	networked control system
0.6299669174	principals
0.6299423016	manually
0.6299219487	security services
0.6299175470	constraints
0.6299142763	approximation method
0.6299120833	area
0.6299111908	fulfill
0.6299046838	parsers
0.6299027446	depressed
0.6298707993	binary input
0.6298663616	albeit
0.6298595141	018
0.6298561017	respective
0.6298301358	public space
0.6298191909	competing
0.6297687741	simulation program
0.6297676695	kinematic model
0.6297664118	session based
0.6297652682	polynomial time solvable
0.6297575708	satisfy
0.6297569963	except
0.6297556500	peer overlay
0.6297226708	sources
0.6297093702	select
0.6297089276	laboratory experiments
0.6297059205	newly
0.6296467765	successive interference
0.6296367256	interspersed
0.6296336414	badly
0.6296290428	negotiations
0.6296194380	selling
0.6296166414	retrial
0.6296080580	linear programming problem
0.6296057115	phonon
0.6295832555	detection mechanism
0.6295574611	one sided
0.6295563482	quality index
0.6295490265	piezoresistive
0.6295431253	design tool
0.6295237544	references
0.6295218326	comput appl eng educ 17
0.6295171292	como
0.6294917719	video databases
0.6294787584	deformed
0.6294753401	digitized
0.6294600642	storage space
0.6294380187	microrobot
0.6294219886	operators
0.6294139739	design alternatives
0.6293593233	worth
0.6293540428	overloaded
0.6293200321	asymptotically tight
0.6293195937	quality scores
0.6293124942	output
0.6292897052	refactorings
0.6292787851	anthropomorphic
0.6292777757	enforce
0.6292618798	close
0.6292378235	assign
0.6292295037	filing
0.6292076520	water surface
0.6292055264	substantially
0.6291963168	convenient
0.6291920209	training instances
0.6291873761	recognizable
0.6291753401	disconnected
0.6291737508	term
0.6291676725	probabilistic logic
0.6291445283	disadvantages
0.6291445283	encourage
0.6291398623	evaluates
0.6291060352	documentation
0.6290783038	templates
0.6290534181	access mechanism
0.6290490565	units
0.6290465633	conclude
0.6290422128	adjust
0.6290327100	multi classifier
0.6290245221	constitute
0.6290123957	bound
0.6289982900	automation systems
0.6289972497	seek
0.6289823185	malwares
0.6289807102	inserted
0.6289642021	just noticeable
0.6289616840	recourse
0.6289601517	fails
0.6289475877	cantilevers
0.6289438885	agent based model
0.6289438437	fingerprints
0.6289238388	recency
0.6289192980	brings
0.6289084299	infrastructural
0.6289027337	nonfunctional
0.6289018344	non invasive
0.6288619228	error distribution
0.6288595911	quantitatively
0.6288524522	semantic query
0.6288510765	special attention
0.6288504674	business strategies
0.6288500459	decomposition algorithm
0.6288496700	regressors
0.6288454699	thousand
0.6288337958	develops
0.6288229760	soft information
0.6288115313	patterning
0.6288109901	searches
0.6288102100	synchronisation
0.6288086575	ica based
0.6288061869	minimized
0.6287858472	input space
0.6287658874	leave
0.6287475282	cognitive systems
0.6287467656	simulation tools
0.6287364488	interpret
0.6287207674	answers
0.6286773552	dea models
0.6286681539	development project
0.6286617577	requestors
0.6286617577	deviant
0.6286386315	textual features
0.6286299887	embryo
0.6286218230	complex wavelet transform
0.6286177932	shifters
0.6286177932	stratum
0.6286177932	consensual
0.6286177932	journalists
0.6286177932	employers
0.6285901004	expressivity
0.6285684019	performance tradeoffs
0.6285642700	topological information
0.6285635765	branch and price
0.6285630312	high level semantic
0.6285496553	carefully
0.6285461451	end
0.6285080537	analysed
0.6284576702	malicious users
0.6284402749	gathered
0.6284362938	creative process
0.6284204232	pendulums
0.6284187850	completed
0.6284121608	reflect
0.6284116008	possibilities
0.6283898724	voip service
0.6283500733	ieee 802154
0.6283428389	fins
0.6283307360	soft core
0.6283086734	reconstructions
0.6283038467	layout analysis
0.6282983568	occurrence
0.6282921223	specialty
0.6282907152	end to end qos
0.6282879974	worn
0.6282754210	why
0.6282680757	mobile search
0.6282628048	consistently
0.6282473015	based virtual screening
0.6282346968	queries
0.6282270426	structure learning
0.6282192930	interdependencies
0.6282099677	distinguishable
0.6282026228	monitored
0.6281910945	industrial processes
0.6281528804	synchronization errors
0.6281346821	attracted
0.6281336414	foremost
0.6281336414	fosters
0.6281227201	top k
0.6281165513	material properties
0.6280970437	scintillation
0.6280934768	links
0.6280822885	model adaptation
0.6280757772	pursuing
0.6280330097	material
0.6280234717	extended version
0.6280168219	multi agent system
0.6279953913	belong
0.6279870122	automatic speech
0.6279829030	biomass
0.6279696194	sufficiently large
0.6279507184	measure
0.6278993929	determines
0.6278767724	sequence databases
0.6278407963	experienced
0.6278222262	stereotypes
0.6278196731	update
0.6278164490	throughput analysis
0.6278101050	matchers
0.6278015926	leg
0.6277956175	802154
0.6277825303	potential function
0.6277760428	consumption
0.6277735800	array processing
0.6277143560	coset
0.6277102382	varying
0.6276854343	access control models
0.6276786150	efficiency
0.6276707696	near field
0.6276684799	excitability
0.6276684799	classication
0.6276565572	cyclically
0.6276085305	leverage
0.6275985894	reached
0.6275978102	signals
0.6275835386	error variance
0.6275739528	backlash
0.6275723329	roads
0.6275621336	lower and upper bounds
0.6275572340	allocation and scheduling
0.6275529417	equal
0.6275517376	establish
0.6275299571	gain
0.6275165491	fuzzy model based
0.6274816231	signers
0.6274767716	thalamic
0.6274743767	scaffolds
0.6274489499	performance guarantees
0.6274413592	defines
0.6274329528	manipulated
0.6274261722	shifter
0.6273993407	dynamically adjusts
0.6273786433	resistivity
0.6273742832	function optimization
0.6273672330	sparse solutions
0.6273625879	glaciers
0.6273384312	silhouettes
0.6273302159	gripper
0.6273242063	special section
0.6273024435	network conditions
0.6272924043	transportation systems
0.6272859597	terminating
0.6272635209	speech recognition task
0.6272383068	search ability
0.6272332697	strongly np hard
0.6272254502	strictly
0.6272185942	winner take
0.6272025139	haplotypes
0.6272001363	gate arrays
0.6271898786	confirm
0.6271875360	inherently
0.6271803046	exists
0.6271474318	representatives
0.6271401322	acyclic graph
0.6271037940	symmetric functions
0.6271003401	clocks
0.6270940861	e government services
0.6270927342	metabolites
0.6270888547	modes
0.6270753816	identities
0.6270736259	ellipsoid
0.6270575977	superlinear
0.6270475905	configuration
0.6270422128	preserve
0.6270391672	dynamic modeling
0.6270334473	faces
0.6270055749	admission control scheme
0.6270030373	guarantee
0.6270025255	sequence based
0.6270022581	abilities
0.6269894856	search problem
0.6269877436	binaries
0.6269830837	low cost rfid
0.6269776311	communication architecture
0.6269737019	greatly reduced
0.6269735830	turnover
0.6269595486	varepsilon
0.6269513341	dipoles
0.6269441300	highly
0.6269343151	process aware
0.6269341568	partition problem
0.6269080177	wish
0.6268971817	supply networks
0.6268963603	range dependent
0.6268813571	risk level
0.6268754092	transponders
0.6268141653	high dimensional feature
0.6267977414	together
0.6267909938	remain
0.6267866464	accesses
0.6267833437	knowledge assets
0.6267770149	ecommerce
0.6267762561	analyzes
0.6267728457	extensive experimentation
0.6267461302	polyps
0.6267424579	service components
0.6267381608	great
0.6267365458	loudspeakers
0.6267039766	lesions
0.6267030499	two phase flow
0.6266982514	solubility
0.6266762045	rights reserved
0.6266713977	wireless sensor and actor
0.6266589371	critical point
0.6266549794	multicores
0.6266322872	thousands
0.6266292656	feedback gains
0.6266141597	benchmark functions
0.6265885361	wetting
0.6265841886	multiple regression
0.6265801474	performances
0.6265783658	projects
0.6265771004	mirrored
0.6265611340	measurement method
0.6265239251	transmitted
0.6265142264	under
0.6265071089	synopses
0.6265069531	decision support system
0.6264950910	thumbnail
0.6264950910	isochronous
0.6264923924	sets
0.6264899994	heavily
0.6264706848	code assignment
0.6264349303	dramatically
0.6264322872	regarded
0.6264262951	behaviour
0.6264256772	suggesting
0.6264206212	say
0.6263969860	popularity
0.6263795257	communication costs
0.6263718415	ratio snr
0.6263716502	related genes
0.6263688861	subsequent
0.6263613286	negligible
0.6263488151	design choices
0.6263250787	orderings
0.6263219180	developed countries
0.6263121330	sirna
0.6263026727	fuzzy c means algorithm
0.6262921223	endurance
0.6262808860	implementations
0.6262719326	time division multiple access
0.6262666138	distributed scheduling
0.6262663321	frequency assignment
0.6262642302	wearers
0.6262488378	bodily
0.6262374188	epsiv
0.6262316393	structures
0.6262222765	user mode
0.6262146486	error rate ber
0.6261874294	input delay
0.6261874029	traversing
0.6261745426	candidate
0.6261568791	incompressible navier stokes
0.6261185855	begins
0.6260796598	delay distribution
0.6260692252	cultivated
0.6260592643	condition
0.6260319656	familytimes new romanrntabmso
0.6260145446	search and rescue
0.6260060603	variants
0.6259956190	peak signal to noise ratio
0.6259923008	satisfying
0.6259886037	engineering project
0.6259809294	quality dimensions
0.6259808294	warnings
0.6259794555	caregiver
0.6259777749	128
0.6259774200	propagation model
0.6259756263	rfid data
0.6259722796	energy consumed
0.6259479635	study
0.6259346921	chatting
0.6259252836	heuristic solution
0.6259175145	whenever
0.6258927219	demonstrating
0.6258784521	salesman problem
0.6258736216	bpel process
0.6258657542	registered
0.6258575272	lengths
0.6258283453	objective optimization problem
0.6258074109	docked
0.6258054340	interactive learning
0.6257975170	captures
0.6257945407	profiled
0.6257923742	easier
0.6257757190	large
0.6257500921	short communication
0.6257405081	won
0.6257369485	weighted tardiness
0.6257231071	homogeneity
0.6257090024	drawback
0.6257004549	venues
0.6256616356	subsidence
0.6256613351	angle of arrival
0.6256565198	saccades
0.6256437954	apertures
0.6256259599	varies
0.6256246550	look
0.6256060624	morphism
0.6256043652	convert
0.6256033266	theoretic approach
0.6256014613	sensory input
0.6255743276	security proof
0.6255680191	wireless nodes
0.6255442178	measurable
0.6255420098	airports
0.6255367711	maps som
0.6255301745	fewer
0.6255230418	biological data
0.6255122506	rapidly
0.6254955153	unvoiced
0.6254929417	mapped
0.6254917454	notations
0.6254910829	transferred
0.6254832633	separate
0.6254787584	hazards
0.6254600039	cylinders
0.6254535603	scientific fields
0.6254256663	simplifications
0.6254256663	algorithmically
0.6254256663	subtracting
0.6253722411	also
0.6253505723	low frequencies
0.6253295693	previous researches
0.6253114054	attainable
0.6253091106	readout
0.6252898706	proteins
0.6252515684	collaborations
0.6252514182	microarchitecture
0.6252450717	giving
0.6252285093	non linearity
0.6252185208	largely
0.6252132076	desirable
0.6252017622	inhomogeneity
0.6251962738	significantly outperforms
0.6251844986	subject
0.6251687722	sensors
0.6251584251	skewness
0.6251539975	superficial
0.6251539975	longterm
0.6251539975	knowledgeable
0.6251400672	input variable
0.6251332672	generation method
0.6251006213	numerical solutions
0.6250996607	beat
0.6250839205	massive data
0.6250600655	greatly reduce
0.6250429959	transformations
0.6250424230	outperform
0.6250414157	lobule
0.6250414157	analytes
0.6250093379	remove
0.6249914606	wirelessly
0.6249644022	accomplish
0.6249627876	expansion method
0.6249624049	vorticity
0.6249491002	resolve
0.6249388398	closely
0.6249290803	task planning
0.6249084129	low
0.6249026903	previously unknown
0.6248981406	flexibility
0.6248976894	interpolator
0.6248891662	retrieved
0.6248857687	entre
0.6248498156	recommenders
0.6248310928	dissipation
0.6248040817	flows
0.6247906146	but
0.6247767274	designs
0.6247451322	computes
0.6247356860	recover
0.6247204483	deployable
0.6247050252	idioms
0.6246998956	articles
0.6246763041	motives
0.6246701402	real time systems
0.6246416949	requester
0.6246416949	tilted
0.6246386048	requiring
0.6246164263	imputed
0.6246021749	workflow management system
0.6245570662	driven approach
0.6245548914	curious
0.6245458760	tool
0.6244527656	mimo orthogonal frequency division multiplexing ofdm
0.6244513536	cost
0.6244482299	adaptation scheme
0.6244414188	actor networks
0.6244257953	severe
0.6244182050	computationally
0.6244095528	practices
0.6244016782	camera network
0.6243173427	network utilization
0.6243145893	high reliability
0.6243131824	setup
0.6243107884	streaming services
0.6243044507	what
0.6242882765	rely
0.6242624850	slightly
0.6242608124	highlight
0.6242522456	moved
0.6242251730	fuzzy temporal
0.6242087595	microstructural
0.6242087595	attainment
0.6242087595	cloned
0.6242075293	specialized hardware
0.6242049913	mixture of gaussians
0.6242041073	mobile client
0.6241949237	minerals
0.6241949237	supermodular
0.6241949237	subordinate
0.6241600546	dont care
0.6241507054	manpower
0.6241452442	learning methods
0.6241434948	engineering students
0.6241366989	profile based
0.6241333339	generalize
0.6241140633	outcomes
0.6240575977	rewarding
0.6240419202	research methodology
0.6240105879	computer vision
0.6239988378	subnetworks
0.6239988378	widening
0.6239960036	unsound
0.6239760854	prolonged
0.6239732534	simulation engine
0.6239596539	accuracy
0.6239358051	images
0.6239256663	trivially
0.6239222553	search efficiency
0.6239152017	proportion
0.6238685977	computing infrastructure
0.6238461476	unlabeled
0.6238244786	borders
0.6237855933	dynamic model
0.6237761963	structurally
0.6237680255	inliers
0.6237680255	exaggerated
0.6236948248	instrumented
0.6236737115	sighted
0.6236674322	gripping
0.6236604270	proprioceptive
0.6236522555	formulate
0.6236380817	changing environments
0.6236352270	schedule
0.6236314399	regards
0.6236266240	involve
0.6236245327	difficulty
0.6236031335	performs
0.6235696358	asked
0.6235662585	timeliness
0.6235382480	sized
0.6235152448	evaluation function
0.6235104913	criticism
0.6235104913	ancillary
0.6234939464	meet
0.6234927400	mathematically
0.6234834829	finds
0.6234820523	analytically
0.6234802651	function
0.6234734723	interactions
0.6234415388	fully understood
0.6234404535	costly
0.6234343335	masses
0.6234331758	vaccination
0.6234194856	pre defined
0.6234104875	influences
0.6233841009	species tree
0.6233518915	lti systems
0.6233421597	animators
0.6233371327	capture
0.6233315754	interleavings
0.6233079899	level set function
0.6233040827	promotions
0.6233040827	folder
0.6232765463	curse of dimensionality
0.6232690973	calls
0.6232172182	similarities
0.6232147852	phenomena
0.6232095192	highest
0.6232009194	facilitates
0.6231965922	doses
0.6231887446	scales
0.6231871244	sufficiently
0.6231603391	runs
0.6231473085	software stack
0.6231472647	intersections
0.6231446022	providers
0.6231383816	cdot
0.6231322576	reasonable
0.6231320340	passing
0.6231298105	asymmetric information
0.6231264862	diverse
0.6231098136	changed
0.6231097515	plugins
0.6230921903	noise
0.6230905418	drawn
0.6230905321	traps
0.6230805795	learning experience
0.6230621244	extensively
0.6230506377	basket
0.6230506377	caller
0.6230496744	perplexity
0.6230225551	marketers
0.6230225551	wandering
0.6230225551	visualised
0.6230148786	greatly
0.6230135883	propulsive
0.6230135883	consistencies
0.6230130493	avoid
0.6229993932	admitting
0.6229844363	crawl
0.6229797929	attractor
0.6229757273	consistently outperforms
0.6229725535	mill
0.6229685668	supply chain performance
0.6229652724	negative consequences
0.6229643358	societal
0.6229622825	formalism
0.6229593744	supposed
0.6229577624	numerically
0.6229339975	timestamp
0.6228814879	hand written
0.6228764314	phenotype
0.6228443984	tensions
0.6228392632	sensing applications
0.6228359635	aux
0.6228351429	human experts
0.6228203613	wearing
0.6228093007	simpler
0.6227911106	solution
0.6227843611	incongruent
0.6227804526	superiority
0.6227789273	ranking algorithms
0.6227784091	undertaken
0.6227715348	preference based
0.6227673240	practical implementation
0.6227635575	agent interaction
0.6227601615	middlewares
0.6227371102	normalisation
0.6227235646	informed decisions
0.6227032147	bones
0.6227032147	scaffold
0.6226832733	pores
0.6226429517	reliabilities
0.6226429517	orthologous
0.6226271777	diastolic
0.6226190482	identifies
0.6226122484	equivalent
0.6226091483	begin
0.6225754212	friendships
0.6225412161	nonsingular
0.6225316973	1d
0.6225297084	information and communication technology ict
0.6225294200	quasi linear
0.6225227578	issues surrounding
0.6225014823	happens
0.6225014592	potency
0.6224489957	continuously
0.6224476750	workspaces
0.6224476750	reconfigurations
0.6224140017	enhances
0.6223920635	sample selection
0.6223751232	headers
0.6223661523	market based
0.6223577106	promoters
0.6223348914	preliminarily
0.6223321281	signal strength indicator
0.6223210064	taxa
0.6223168891	multicast scheme
0.6223060311	vagueness
0.6223021905	sum product
0.6222978273	dynamic programming algorithms
0.6222694528	peaks
0.6222255205	implies
0.6222190439	peer to peer streaming
0.6222115311	communitys
0.6222115311	forever
0.6222017479	monograph
0.6221763707	synthetic data sets
0.6221699553	interact
0.6221684397	siblings
0.6221480123	contributions
0.6221472647	meetings
0.6221401336	topological features
0.6221293470	responses
0.6221191870	fronto
0.6221173043	cautious
0.6220984222	misclassification
0.6220673911	strongly
0.6220561067	periods
0.6220139723	redundant features
0.6220012248	based video retrieval
0.6219887595	canceling
0.6219781122	dsp based
0.6219675664	little
0.6219192968	3n
0.6219124379	reasons
0.6219077265	decaying
0.6218978974	analyses revealed
0.6218938767	throwing
0.6218822576	valuable
0.6218814057	least mean square
0.6218767376	considers
0.6218751370	distributed data
0.6218726173	feedback information
0.6218584602	hints
0.6218562751	resonance imaging fmri
0.6218474312	conduct
0.6218422503	realizable
0.6218197188	equipped
0.6218119981	surrounding
0.6218081998	vacant
0.6218081998	breakpoints
0.6218046082	j combin theory ser b
0.6217668838	multiplex
0.6217668838	parsed
0.6217485984	matrices
0.6217338081	interpolants
0.6217183473	drawbacks
0.6216642257	porosity
0.6216373845	share
0.6216300401	huge
0.6216217935	visual speech
0.6216200512	upper bounded
0.6216132184	distinguished
0.6216088289	stretch
0.6215976012	source location
0.6215921936	facets
0.6215819889	midline
0.6215781139	scaling factor
0.6215562525	communicate
0.6215478644	internet service
0.6215424532	prevalent
0.6215412161	polymers
0.6215398239	realize
0.6215327240	web environment
0.6215127307	motor learning
0.6215043885	effectiveness
0.6215031308	functional aspects
0.6214839313	disordered
0.6214716222	capacity estimation
0.6214655407	soft real time
0.6214424962	synchronization problem
0.6214361611	distinct
0.6214331652	filtering method
0.6214193109	girls
0.6214121270	signal power
0.6214099128	indefinite
0.6214099128	colorings
0.6214082974	semantic features
0.6213799487	readwrite
0.6213777152	sophisticated
0.6213749720	single particle
0.6213734543	back
0.6213658531	updated
0.6213539756	commonly
0.6213539381	interconnecting
0.6213443984	didactic
0.6213411518	toroidal
0.6213338794	evolve
0.6213151032	outbound
0.6213151032	inviscid
0.6213151032	syndromes
0.6213041918	tanks
0.6213036067	said
0.6213015404	prompted
0.6212907904	iterative procedure
0.6212657263	seizures
0.6212547676	differentials
0.6212460383	ample
0.6212433548	tools
0.6212272100	plural
0.6212037992	backscattering
0.6212003510	idleness
0.6212003510	ballots
0.6211800496	invariably
0.6211800496	sharper
0.6211800496	inadequacy
0.6211762397	helps
0.6211738122	22nm
0.6211714566	higher quality
0.6211541754	droplets
0.6211053099	bridged
0.6211013162	reveal
0.6210755888	pooled
0.6210689404	exogenous
0.6210452743	accommodate
0.6210404076	sont
0.6210399890	disjunction
0.6210190910	appearing
0.6210179976	configurations
0.6210155323	temporo
0.6210155323	checkable
0.6210155323	assurances
0.6210155323	sputtering
0.6210037201	pulse position
0.6209704872	vectorization
0.6209673137	network coverage
0.6209671036	stance
0.6209607912	network reliability
0.6209453430	automate
0.6209308047	zwischen
0.6209308047	transmittance
0.6209261807	80216
0.6209158446	time varying channels
0.6208843691	interruptions
0.6208774688	significant
0.6208751232	pathologies
0.6208685603	movements
0.6208541289	limitation
0.6208253282	entire
0.6208223865	aspects
0.6208209306	unifying framework
0.6208128162	isin
0.6208090842	copyright 2008 john wiley sons
0.6208079762	speedup
0.6208056134	conjunction
0.6207841808	complicated
0.6207796965	bag of words
0.6207707041	certainly
0.6207614261	seats
0.6207572181	imbalance problem
0.6207518213	produced
0.6207390265	shells
0.6207343993	seeks
0.6207343650	water environment
0.6207197242	passwords
0.6207013905	outline
0.6206952593	dynamic programming algorithm
0.6206948248	diversified
0.6206830881	obstacles
0.6206679674	constrained environments
0.6206624454	pedagogic
0.6206624454	untrustworthy
0.6206624454	openly
0.6206579766	spoofing
0.6206512561	quantify
0.6206507054	streamed
0.6206256691	replaced
0.6206155323	wastage
0.6206155323	emanating
0.6206155323	sooner
0.6206155323	frustrating
0.6205990606	worst case complexity
0.6205964914	edits
0.6205852393	displayed
0.6205551192	slight increase
0.6205480402	maintainable
0.6205419584	frequency tuning
0.6205304079	leq
0.6205109152	complete lattice
0.6205099259	colluding
0.6205099259	interpolant
0.6205099259	subfield
0.6204976022	close proximity
0.6204970111	weightings
0.6204970111	experimenter
0.6204970111	speculatively
0.6204970111	80211s
0.6204970111	toys
0.6204855866	real world images
0.6204853461	amplification
0.6204683235	mean variance
0.6204297007	viruses
0.6204167926	original
0.6204148087	hardware resources
0.6204104550	shipment
0.6203985785	adaptive genetic algorithm
0.6203981802	glasses
0.6203579165	variational methods
0.6203457270	businesses
0.6203294810	accelerate
0.6203195761	decrease
0.6203015404	confident
0.6202901221	vulnerable
0.6202855660	state based
0.6202530538	energy delay
0.6202453593	shape space
0.6202391286	sequenced
0.6202378484	patients
0.6202327452	analyte
0.6202244191	roots
0.6202243880	frequency flat
0.6202068324	optimization approaches
0.6201796377	suitability
0.6201431662	anonymized
0.6201192880	x y
0.6201176810	deals
0.6201150164	open architecture
0.6201073431	reason
0.6200970831	formulations
0.6200845440	remaining
0.6200771835	task specific
0.6200748665	solute
0.6200726753	expensive
0.6200600127	buildings
0.6200528118	information and communications technology
0.6200292043	lifted
0.6200256204	residence
0.6200141381	printers
0.6199994525	stolen
0.6199972286	next generation networks
0.6199608953	locate
0.6199503378	verify
0.6199502697	consist
0.6199119696	devices
0.6199105603	escience
0.6199084444	density parity check codes
0.6198825181	healthcare systems
0.6198786417	alarming
0.6198604697	single camera
0.6198599725	ions
0.6198531734	memory architecture
0.6198466530	prediction methods
0.6198365789	paper documents
0.6198045447	network stack
0.6197900301	nonlinear schrodinger
0.6197847254	deactivation
0.6197840431	blind users
0.6197833846	counters
0.6197558061	gains
0.6197478595	sample set
0.6197416331	players
0.6197094523	people
0.6197058103	significant performance gains
0.6197044193	slices
0.6196884168	tentative
0.6196744061	dual task
0.6196686578	followers
0.6196536946	instantiating
0.6196362664	abundant
0.6196349434	dynamic control
0.6196338567	subcomponents
0.6196338567	subregion
0.6196289694	suffers
0.6196252492	homologs
0.6196220293	acoustic feature
0.6196080339	disseminating
0.6196080339	attaching
0.6195844256	reduce energy consumption
0.6195739837	ease
0.6195621140	verified
0.6195575450	microstructures
0.6195575450	ingress
0.6195565232	day
0.6195533877	driven development
0.6195273773	predefined
0.6195273773	vital
0.6195272737	screens
0.6195264838	endemic
0.6195224155	cost model
0.6195037611	delay product
0.6194960274	virtual network
0.6194934602	spectrum sensing scheme
0.6194882522	discrete time nonlinear
0.6194880405	power gain
0.6194853652	fareast
0.6194824207	approximants
0.6194755627	high
0.6194571576	heated
0.6194548742	revealed
0.6194529421	aggregations
0.6194456287	intrinsically
0.6194180814	temporal data
0.6194178161	development processes
0.6194176669	viscous
0.6193991071	manage
0.6193751232	comprehensibility
0.6193437039	sidelobes
0.6193401359	irradiation
0.6193293774	vertices
0.6193041918	attendance
0.6192877528	approximators
0.6192877528	antibiotics
0.6192855821	numerical values
0.6192844069	decreases
0.6192700476	spamming
0.6192665587	transient performance
0.6192605889	suggests
0.6192543786	probabilities
0.6192485800	back projection
0.6192454745	human subject
0.6192427991	posit
0.6192346843	maintain
0.6192295547	capacity analysis
0.6191982998	pickup and delivery
0.6191870155	fluctuations
0.6191843620	large sample
0.6191789537	channel estimation method
0.6191538493	colluders
0.6191503926	solves
0.6191457742	validate
0.6191443976	blend
0.6191386662	fuzzy optimization
0.6191308814	homoclinic
0.6191308814	geotagged
0.6191179960	respond
0.6191141526	noise estimation
0.6190822330	inhibiting
0.6190655934	fronts
0.6190539021	paid
0.6190379654	molecular mechanisms
0.6190326674	syntactically
0.6190261325	adapt
0.6190258170	high scalability
0.6190230123	distances
0.6190071676	suffixes
0.6189853591	nonlinear function
0.6189671036	cropping
0.6189544685	alerts
0.6189527620	dyads
0.6189442972	ensure
0.6189418608	hmm based speech
0.6189171055	neural network bpnn
0.6189036616	striving
0.6188771633	worst
0.6188770858	eliminate
0.6188701664	trajectory data
0.6188510538	pressures
0.6188494323	peeling
0.6188494323	fees
0.6188319767	decision making problems
0.6187998710	terminologies
0.6187990455	spatio temporal data
0.6187851357	cores
0.6187834586	gained
0.6187736580	subsets
0.6187621483	coils
0.6187502772	arising
0.6187499990	debuggers
0.6187481030	substitutions
0.6187396721	avenue
0.6187323951	flow problem
0.6187157463	all
0.6187109794	benefit
0.6187017380	rejecting
0.6187010156	access protocol
0.6186988657	averagely
0.6186988657	lever
0.6186939087	directories
0.6186832252	products
0.6186794662	continuous optimization
0.6186723687	impossible
0.6186652182	main drawbacks
0.6186609422	approaches
0.6186524791	primarily
0.6186504667	words
0.6186249853	without random oracles
0.6186075450	discounts
0.6186006182	temporal aspects
0.6185996857	nickel
0.6185963626	linear correlation
0.6185922375	haul
0.6185922375	ainsi
0.6185881315	converges
0.6185865679	rule based classification
0.6185686855	schedulable
0.6185677061	separated
0.6185656468	research opportunities
0.6185222051	supplied
0.6185180772	detailing
0.6185117106	relative improvement
0.6185024339	rf signal
0.6185005742	subnet
0.6184952795	arranged
0.6184853652	2dpca
0.6184717722	longer
0.6184678237	space complexity
0.6184671900	scrambled
0.6184596947	resource allocation problems
0.6184594841	inferior
0.6184478400	assist
0.6184416899	faded
0.6184416899	frontend
0.6184176134	method engineering
0.6184170886	stronger
0.6183986806	holders
0.6183589365	veins
0.6183275789	follow
0.6183198592	pairwise constraints
0.6183043437	facilitated
0.6182631184	rounded
0.6182631184	propelled
0.6182484991	center of gravity
0.6182392427	possibility
0.6182348474	linear programming formulation
0.6182340808	production rate
0.6182336552	network protocol
0.6182240089	space time frequency
0.6182133814	everything
0.6182122344	network latency
0.6181922375	landslides
0.6181922375	ecient
0.6181779541	reconstruction problem
0.6181714618	mitigate
0.6181560800	linear scaling
0.6181371455	extremely
0.6181204103	properly
0.6181133282	signal acquisition
0.6181004504	exploit
0.6180936891	2s
0.6180936891	pockets
0.6180859219	friendship
0.6180622398	retrieve
0.6180274915	destination link
0.6180229038	preferred
0.6179974749	rights management
0.6179674064	replicated
0.6179611891	phenomenon
0.6179594187	showcase
0.6179540826	size0rntabmso
0.6179540826	tstyle
0.6179522198	core network
0.6179468040	farmers
0.6179248383	information content
0.6179184375	greatly reduces
0.6179117730	clicking
0.6179117730	delegated
0.6179081810	field experiments
0.6179070316	hyperplane
0.6179052942	language0400rntabmso
0.6178940560	garment
0.6178929507	users
0.6178714706	attached
0.6178713005	radicals
0.6178713005	misclassified
0.6178713005	rupture
0.6178199320	bring
0.6178064231	functions
0.6177637163	component models
0.6177579766	permission
0.6177532147	subchannel
0.6177246686	cancer research
0.6177061278	named
0.6176877483	collaborative applications
0.6176682071	interrelationships
0.6176637893	illustrate
0.6176540840	scene images
0.6176502492	auctioneer
0.6176217081	context modeling
0.6176186978	maximization problem
0.6176163242	autocorrelations
0.6176163242	therapist
0.6176130022	potentialities
0.6176098646	p2p computing
0.6176012533	officials
0.6175773327	energy levels
0.6175755864	transmitted power
0.6175710543	operated
0.6175647169	sense making
0.6175513445	ieee 80216
0.6175060265	forged
0.6175039829	limited bandwidth
0.6175008640	polymeric
0.6174964518	disposition
0.6174964518	plasmas
0.6174524359	affecting
0.6174501253	vary
0.6174484885	ambitious
0.6174484885	tells
0.6174450904	promotional
0.6174262068	downtime
0.6174123653	interference coordination
0.6174102084	finely
0.6174092687	regression test
0.6173958390	vs
0.6173762015	mobile robotic
0.6173747441	graph gve
0.6173607714	brands
0.6173472292	emitter
0.6173377105	receiving
0.6173178803	entailed
0.6172856962	seasons
0.6172856962	primates
0.6172767848	internally
0.6172690245	hides
0.6172528555	alternatives
0.6172480352	utmost importance
0.6172247927	mediates
0.6172094678	display devices
0.6171984219	bidder
0.6171873354	sites
0.6171835195	math anal appl
0.6171788918	generically
0.6171735925	discovered
0.6171688276	speed
0.6171604842	electronic control
0.6171566042	sufficient
0.6171356907	utilizes
0.6171125039	keeps
0.6171016434	bypasses
0.6171016434	weighed
0.6170655946	per
0.6170609146	extremely challenging
0.6170108600	permutations
0.6170016440	time slot allocation
0.6169835825	spacings
0.6169831064	accomplishment
0.6169740075	automatic image
0.6169263493	block coded
0.6169192541	mpeg 2
0.6169111169	usefulness
0.6169068057	limbic
0.6168977611	objects
0.6168967594	stochastic models
0.6168924287	synopsis
0.6168749386	downlink channel
0.6168610952	ways
0.6168573930	communication mechanism
0.6168407884	modify
0.6168284719	domains
0.6168140647	surgeries
0.6168140647	upto
0.6168106680	prior distributions
0.6167901481	describing
0.6167891522	abundances
0.6167891522	contaminant
0.6167891522	conservativeness
0.6167891522	trainee
0.6167680744	based collaborative filtering
0.6167640914	bitrates
0.6167598005	considerably
0.6167453361	phenomenological
0.6167451643	transmission technique
0.6167450904	coprocessors
0.6167450904	2p
0.6167450904	interarrival
0.6167442658	correlation matrices
0.6167221128	logos
0.6167045341	orthogonal frequency
0.6166917687	data mining tasks
0.6166910776	working environment
0.6166750531	adaptive modulation and coding
0.6166714618	trivial
0.6166700941	lesson
0.6166577236	passband
0.6166577236	peaking
0.6166577236	permuted
0.6166156962	prescriptive
0.6166097092	normal vector
0.6166019898	total length
0.6165897262	subpopulations
0.6165699195	integrate
0.6165697719	paving
0.6165365278	believed
0.6165344290	near field communication
0.6165284238	precuneus
0.6165284238	putamen
0.6165284238	mrnas
0.6165217427	unloading
0.6165217427	1p
0.6165156989	affects
0.6164853904	members
0.6164663100	dropout
0.6164649703	perturbing
0.6164503231	exhibits
0.6164471247	reference trajectories
0.6164409721	employs
0.6164408042	interconnections
0.6164356926	data privacy
0.6164354506	lies
0.6164302114	walking motion
0.6164301910	operating
0.6164188362	emerged
0.6164068869	clients
0.6163972645	multiple input multiple output mimo systems
0.6163931463	attractive
0.6163918353	endmembers
0.6163918353	subtyping
0.6163890504	scores
0.6163822733	households
0.6163650194	submatrices
0.6163629567	ieee 80222
0.6163501649	algorithmic framework
0.6163446021	telling
0.6163356962	discriminated
0.6163323741	hyperparameters
0.6163152685	look up table
0.6163132860	kinds
0.6162925703	dosage
0.6162925703	artworks
0.6162732504	impedances
0.6162724117	crosses
0.6162724117	disclosing
0.6162687338	exponentially
0.6162602712	producing
0.6162585213	labels
0.6162569059	concern
0.6162188724	defuzzification
0.6162177670	lead
0.6162086490	traffic information
0.6161960611	complement
0.6161727103	elbow
0.6161581993	driven engineering mde
0.6161502048	declining
0.6161417147	path generation
0.6161258733	multiple input multiple output mimo channels
0.6161063849	text search
0.6160916349	game based
0.6160874284	savings
0.6160843970	facilitate
0.6160784238	80211p
0.6160784238	unforgeability
0.6160784238	reforms
0.6160447145	optimize
0.6160322174	high level architecture
0.6160301875	morphemes
0.6160301875	homeomorphism
0.6160298529	experimental setup
0.6160280500	chip noc
0.6160224127	automated test
0.6160140900	non
0.6160136227	albedo
0.6160044652	dangerous
0.6160005459	velocity measurements
0.6159859632	excessive
0.6159736299	arranging
0.6159008616	injured
0.6158877757	swarm optimization
0.6158767376	characterize
0.6158724117	staying
0.6158605708	loglog
0.6158517102	interventions
0.6158207166	operability
0.6158064817	discrete state
0.6157940558	multi temporal
0.6157760609	parallelizable
0.6157604318	plusmn
0.6157547265	histological
0.6157511896	incorporates
0.6157309785	clinics
0.6157138933	human motor
0.6157107497	virtual networks
0.6156918833	time division multiplexing
0.6156783486	warrants
0.6156581214	optimal location
0.6156573770	similarity functions
0.6156550593	portion
0.6156495413	error estimator
0.6156483124	reveals
0.6156318074	organize
0.6156310504	font
0.6156227417	urgency
0.6156196811	fast computation
0.6156065623	entangled
0.6155785741	taxes
0.6155686977	secure group
0.6155667836	complex software systems
0.6155571412	stresses
0.6155535191	initial condition
0.6155409791	seamless integration
0.6155335293	user access
0.6155081109	collect
0.6154935227	stabilizable
0.6154605708	painful
0.6154352666	examined
0.6154188362	recognize
0.6154127131	brittle
0.6154049064	secondary network
0.6153820044	rectified
0.6153721443	synonymy
0.6153659623	diffusing
0.6153635439	easy
0.6153605061	bits
0.6153575450	semantical
0.6153528066	expected
0.6153304362	paths
0.6153266153	multi agents
0.6153242116	primate
0.6153183763	kind
0.6152755708	chemists
0.6152755708	obstructed
0.6152395759	buoyancy
0.6152139242	signal to noise ratio
0.6152074085	at
0.6151987215	identification scheme
0.6151980534	minimum rate
0.6151951782	neglected
0.6151907643	compounded
0.6151795164	verification tools
0.6151773404	handoffs
0.6151516837	exhibit
0.6151394752	parameter learning
0.6151243625	theoretical bounds
0.6151010687	multi output
0.6150806463	heterogeneous environment
0.6150689450	recorded
0.6150564770	dof robot
0.6150397071	runtime behavior
0.6150169551	manifestations
0.6149997360	false false false
0.6149978810	finite rate
0.6149683808	notions
0.6149638064	service execution
0.6149442972	overcome
0.6149256908	sub
0.6149070115	infer
0.6148977683	promote
0.6148959608	physical world
0.6148886251	efficacy
0.6148250786	significantly reduce
0.6148148613	stage
0.6148087235	vibration control
0.6148040861	knowledge exchange
0.6147939664	optimal route
0.6147758759	classifiers trained
0.6147699249	theoretical perspective
0.6147563642	modeling approaches
0.6147521449	t conorms
0.6147429146	evolutionary approach
0.6147381857	revoked
0.6147328960	strands
0.6147087052	account
0.6147072206	filtering techniques
0.6146987929	fuzzy expert system
0.6146720073	earthquakes
0.6146576648	fake
0.6146450415	differs
0.6146177304	discusses
0.6145963454	nonredundant
0.6145963454	hotels
0.6145847364	differences
0.6145665230	ad hoc and sensor networks
0.6145654779	average power consumption
0.6145507341	discrete time markov
0.6145482409	maximize
0.6145482409	investigates
0.6145326674	heuristically
0.6145131991	outbreaks
0.6144853361	generates
0.6144731427	examines
0.6144708932	interrelations
0.6144574172	alleviate
0.6144545248	substituting
0.6144370532	loop controller
0.6144113744	recalling
0.6144113744	circulating
0.6144113744	dissatisfaction
0.6144075450	contracted
0.6143950961	level
0.6143914455	steep
0.6143914455	infancy
0.6143487349	subdomain
0.6143487349	secretion
0.6143487349	aborted
0.6143186866	radiance
0.6143040530	relate
0.6142900663	classify
0.6142754711	translation model
0.6142743614	penalty term
0.6142678565	replace
0.6142658678	compression method
0.6142581109	deliver
0.6142581095	computational methods
0.6142502025	flavor
0.6142376414	polytopic
0.6142107621	applicants
0.6142072849	documents
0.6141964155	prevent
0.6141963454	tabletops
0.6141963454	cheat
0.6141925350	relevancy
0.6141907643	inflexible
0.6141894873	waist
0.6141894873	dishonest
0.6141894873	seekers
0.6141835381	diverge
0.6141823804	alterations
0.6141788918	horizons
0.6141431808	measurement based
0.6141134710	interaction analysis
0.6140980028	explores
0.6140934879	addresses
0.6140758242	warrant
0.6140758242	enjoyable
0.6140712489	consecutively
0.6140591297	prohibited
0.6140430986	collaborative research
0.6140097736	image transmission
0.6140037995	trackers
0.6140028942	radiologists
0.6139826095	measures
0.6139572946	unstructured data
0.6139551658	intrinsic parameters
0.6139543485	stimuli
0.6139479047	occurs
0.6139312457	extremities
0.6139280070	reflecting
0.6139140920	imaging studies
0.6139111979	37
0.6139094400	damaging
0.6139094400	streamlined
0.6139083682	likelihoods
0.6139008616	disparities
0.6138953717	classifications
0.6138887232	illuminations
0.6138761896	exploits
0.6138661373	techniques
0.6138583597	compensate
0.6138463371	seeded
0.6138378762	decorrelation
0.6138329750	map based
0.6138104191	distinguish
0.6138103488	infeasibility
0.6137902885	development efforts
0.6137606316	dbchz
0.6137502948	chosen
0.6137484658	synchronizations
0.6137484658	separators
0.6137243212	economic analysis
0.6136986443	arbitrary order
0.6136973883	executed
0.6136718299	authorizations
0.6136718299	subnets
0.6136552749	center of mass
0.6136550152	nonoverlapping
0.6136513018	understand
0.6136318074	visualize
0.6136294400	natures
0.6136164849	communication technologies icts
0.6136098637	activation patterns
0.6136055257	interference model
0.6136002238	dimensions
0.6135972272	determinate
0.6135927095	1m
0.6135927095	perturb
0.6135908304	total energy
0.6135890156	musicians
0.6135856569	running
0.6135847523	compares
0.6135746108	remains
0.6135622051	workload characteristics
0.6135546912	advice
0.6135466414	formally define
0.6135356433	forcetorque
0.6135317967	eavesdropping
0.6135317670	issue
0.6135229163	schemes
0.6135117102	translations
0.6135031061	clay
0.6135031061	depots
0.6135018554	boosts
0.6134676137	run
0.6134668003	scanned
0.6134565864	automata based
0.6134408783	traveled
0.6134359955	fashion
0.6134341987	coherently
0.6134339050	outlets
0.6134260068	genotypes
0.6133731251	spatial filter
0.6133719558	neural network training
0.6133717427	leaked
0.6133593615	awarded
0.6133584206	outdoors
0.6133128570	low energy consumption
0.6133060265	possession
0.6133005220	smoother
0.6132990448	defects
0.6132781680	reviewers
0.6132773643	excitatory and inhibitory
0.6132682355	partition based
0.6132598229	ranking methods
0.6132593762	dissipated
0.6132479368	behavior analysis
0.6132257974	voice over ip
0.6131910995	resistor
0.6131561353	target selection
0.6131075444	large size
0.6130816696	predecessor
0.6130495646	decisions
0.6130389174	submitted
0.6130339793	nucleotides
0.6130272860	honest
0.6130172586	partite
0.6130019340	mistakes
0.6129933273	simply
0.6129671163	textbooks
0.6129565838	exchangeable
0.6129565838	nondecreasing
0.6129565838	unpleasant
0.6129360553	cinematic
0.6129360553	monomials
0.6129323814	location accuracy
0.6129214662	cardinalities
0.6129214662	parasitics
0.6129200473	practically
0.6128913368	mobile game
0.6128859935	cant
0.6128783024	crashes
0.6128722383	choices
0.6128671286	novelties
0.6128671286	inserts
0.6128671286	customised
0.6128255030	fight
0.6128128578	proof systems
0.6128036241	commonalities
0.6127876130	organized
0.6127768750	enlarging
0.6127718336	beacons
0.6127707628	concept space
0.6127638715	belongs
0.6127439075	signal to interference ratio
0.6127160274	model driven approach
0.6127065236	patient data
0.6126918092	exploited
0.6126904285	conditions
0.6126890242	ambiguity
0.6126791585	crimes
0.6126757176	master and slave
0.6126612030	unlikely
0.6126569572	individuals
0.6126549195	orientable
0.6126526885	negation
0.6126183852	frequencies
0.6126161555	deviating
0.6126161555	exposition
0.6126111091	compute
0.6126021975	pauses
0.6125959970	classified
0.6125927095	dinformation
0.6125780427	formulation
0.6125690116	serve
0.6125643040	pc based
0.6125575011	caregivers
0.6125500482	applies
0.6125449690	duties
0.6125432708	technical solutions
0.6125178277	entities
0.6125169666	mistake
0.6124984510	2r
0.6124937946	entertaining
0.6124890542	object location
0.6124670005	infor
0.6124535713	2001
0.6124463371	eligible
0.6123916648	based semi supervised learning
0.6123709137	land use
0.6123670748	observe
0.6123645641	passengers
0.6123622005	participating nodes
0.6123610468	surplus
0.6123607207	acknowledge
0.6123558417	iterative algorithm
0.6123550547	animal models
0.6123540945	linear network coding
0.6123486484	consequence
0.6123421502	categories
0.6123393598	optimisations
0.6123305799	grows exponentially
0.6123187707	burden
0.6123012972	serves
0.6122979021	quasi optimal
0.6122924909	dynamicity
0.6122924909	provisioned
0.6122785924	uncertain nonlinear
0.6122749152	semantics based
0.6122377289	saturated
0.6122262200	visual complexity
0.6122010356	alternately
0.6121963244	video transmission over
0.6121855038	imposed
0.6121838301	marketing strategies
0.6121797133	manufacturing environment
0.6121509580	higher layer
0.6121429799	lateness
0.6121429799	bends
0.6121429799	onsets
0.6121419221	literature search
0.6121405043	groups
0.6121375771	microarchitectural
0.6121352176	resources
0.6121042624	full adder
0.6120618582	popular
0.6120310030	credible
0.6120224316	pointers
0.6119711701	phantoms
0.6119697719	thwart
0.6119668955	exceptions
0.6119641152	acquired
0.6119317685	two dimensional
0.6119236718	handle
0.6119127492	decode and forward
0.6118824364	outputs
0.6118737995	shortly
0.6118726703	genes
0.6118696832	specifically tailored
0.6118493204	audio features
0.6118434790	calculate
0.6118411780	networking environment
0.6118293776	homogeneously
0.6117965445	semantic based
0.6117833713	identical
0.6117824645	commits
0.6117824645	backscattered
0.6117824645	gauges
0.6117770444	directions
0.6117728466	special cases
0.6117691226	bilaterally
0.6117569324	protect
0.6117503240	completely
0.6117458399	explain
0.6117343993	proves
0.6117012887	caught
0.6116845535	maneuverability
0.6116824565	localizations
0.6116824565	consciously
0.6116824565	logistical
0.6116722493	instantly
0.6116528754	efforts
0.6116349136	simplify
0.6116309239	human behaviors
0.6116007046	purely
0.6115504472	fpga platform
0.6115224316	metaphors
0.6115146342	radarsat 1
0.6114961333	bitstreams
0.6114912839	method calls
0.6114612809	19th
0.6114612809	synthesizable
0.6114612809	inhomogeneities
0.6114612809	prefers
0.6114442034	unsolved
0.6114252376	interruption
0.6114183766	cancers
0.6113927056	identification task
0.6113902071	normals
0.6113841233	willing
0.6113652174	web based services
0.6113616503	complications
0.6113475311	expression pattern
0.6113423615	distributions
0.6113285463	ness
0.6113242759	leaking
0.6113084247	efficiency loss
0.6112963459	specific
0.6112793402	produces
0.6112688223	qubit
0.6112659496	widely studied
0.6112541174	works
0.6112352523	advances
0.6112185129	characteristic curve
0.6112184644	intrusiveness
0.6112184644	abdomen
0.6112102944	group interaction
0.6112042966	supporting collaborative
0.6111999556	intruders
0.6111755336	crystallization
0.6111670239	interconnected systems
0.6111279304	fusion algorithms
0.6111218874	requests
0.6111081725	handed
0.6111000491	declarations
0.6110954333	problems
0.6110900545	allowed
0.6110848253	approximations
0.6110777758	powerful
0.6110686853	features
0.6110667982	interoperability for microwave access wimax
0.6110471226	produce
0.6110431626	future trends
0.6110402184	data rates
0.6110311764	47
0.6110195938	relates
0.6110178868	conjugated
0.6110178868	operable
0.6110178868	countrys
0.6110178868	borrow
0.6110109426	buyers and sellers
0.6109999543	bayesian analysis
0.6109909382	insufficient
0.6109795429	permissions
0.6109544877	toolkits
0.6109387569	forecasts
0.6109084797	sampling based
0.6109080598	wavelet neural
0.6108833796	relay systems
0.6108677789	theorists
0.6108677789	professions
0.6108572933	full text
0.6108480197	probes
0.6108480197	drugs
0.6108463371	practiced
0.6108405328	separately
0.6108371268	detect
0.6108023616	utilize
0.6107983067	valid
0.6107900314	spatial scales
0.6107761617	vacation
0.6107700415	optimal design
0.6107456709	files
0.6107346220	extrapolated
0.6107346220	exponentials
0.6107326290	declare
0.6107326290	technologically
0.6107326290	occasional
0.6107326290	departures
0.6107326290	orthogonally
0.6107326290	depart
0.6107281540	flights
0.6107056509	ideas
0.6107000491	pitches
0.6107000491	checklists
0.6107000491	approximator
0.6106978005	concepts
0.6106928695	pixels
0.6106920716	when
0.6106776097	micro benchmarks
0.6106568114	demonstrate
0.6106513115	optimal power
0.6106175742	medical research
0.6105989785	a posteriori probability
0.6105663755	independently
0.6105633716	concludes
0.6105564311	power allocation problem
0.6105552521	relevant
0.6105547606	even
0.6105523027	omitted
0.6105337504	neural control
0.6105237924	65
0.6104924769	pathological
0.6104349494	recursions
0.6104349494	1b
0.6104031014	position based
0.6103883561	appended
0.6103883561	speeches
0.6103697863	percentile
0.6103688299	adapts
0.6103278868	subpopulation
0.6103278868	disabling
0.6103274466	jobs
0.6102985355	contentions
0.6102729206	high detection rate
0.6102698592	consuming
0.6102685756	worrying
0.6102560001	individual
0.6102556026	approximate string
0.6102518675	visual object
0.6102393825	encodings
0.6102041085	cloud model
0.6102031540	limbs
0.6101839482	stages
0.6101825682	unanticipated
0.6101604198	quickly
0.6101602843	blocks
0.6101478328	training sequences
0.6100971336	represent
0.6100791037	examine
0.6100372101	demonstrates
0.6100325435	friends
0.6100309425	largest
0.6100226246	main concern
0.6100168586	regions of interest rois
0.6100138957	accurate predictions
0.6100071193	depths
0.6100003852	quality levels
0.6099937414	holds
0.6099915284	bottom
0.6099878913	factors
0.6099796348	drastically reduces
0.6099428284	microchannel
0.6099381012	introduces
0.6099341987	bonded
0.6099234891	functionalities
0.6099100806	boolean network
0.6098800238	pending
0.6098657978	enact
0.6098657978	bidi
0.6098613089	ant algorithm
0.6098521975	contralateral
0.6098232440	prescriptions
0.6098232440	markings
0.6098090030	motion information
0.6098058374	margin based
0.6097987590	crops
0.6097938070	control structure
0.6097937225	confirmed
0.6097906146	syntactical
0.6097856272	snippets
0.6097691824	advertisements
0.6097647851	performing
0.6097525119	verifiers
0.6097414430	asserted
0.6097414430	demodulated
0.6097414430	conservatively
0.6097414430	engagements
0.6097209643	sensor platform
0.6097198506	substitutes
0.6097198506	sweeping
0.6097172248	viscosity
0.6097156617	describes
0.6097117872	chunks
0.6096644576	reconstructed
0.6096630708	invasion
0.6096612201	axisymmetric
0.6096612201	saline
0.6096612201	underrepresented
0.6096431277	number of receive antennas
0.6096371874	purposes
0.6096280458	web objects
0.6096202386	assembling
0.6096197863	cancerous
0.6096159002	predict
0.6096099663	fusion process
0.6095953404	looks
0.6095778114	forearm
0.6095655566	retraining
0.6095560053	posting
0.6095555932	access scheme
0.6095499743	multiple attribute decision
0.6095491226	earliness
0.6095491226	interfered
0.6095491226	expended
0.6095482651	restaurants
0.6095378532	gyri
0.6095378532	herhis
0.6095288562	digits
0.6095264923	accepting
0.6094956515	reputations
0.6094956515	innocent
0.6094956515	trabajo
0.6094882529	recipe
0.6094868705	services composition
0.6094802066	pedestrians
0.6094421052	delivered
0.6093960086	maintained
0.6093924106	online monitoring
0.6093655664	tabulated
0.6093564075	recruit
0.6093549963	individualized
0.6093351686	hundreds
0.6093285463	unspecified
0.6093263566	operates
0.6093203457	bridges
0.6093128323	variational method
0.6093110067	photographs
0.6093103337	handled
0.6093073374	criteria
0.6093008874	deployment cost
0.6092949155	web graph
0.6092846466	advices
0.6092846466	undefined
0.6092845269	erasures
0.6092620588	ieee 80211
0.6092537947	bandwidth requirements
0.6092459918	employ
0.6092419932	fail
0.6092125664	significant differences
0.6092096954	newly designed
0.6091876434	modules
0.6091806071	acquire
0.6091629617	unknown
0.6091480522	hardware overhead
0.6091429964	suspects
0.6091310086	upper and lower bounds
0.6091220047	diameters
0.6090944066	they
0.6090811428	influenced
0.6090802049	nearly
0.6090715485	insightful
0.6090544398	constant velocity
0.6090377073	communication quality
0.6090284998	simulate
0.6090077579	statistical measures
0.6089939000	newton methods
0.6089791755	network processor
0.6089645516	potentially
0.6089600693	learning theories
0.6089466868	determine
0.6089463371	encrypting
0.6089455760	principally
0.6089442646	listening tests
0.6089163226	conditionally
0.6088870910	equivalents
0.6088870744	full
0.6088341394	flow based
0.6088234026	stationarity
0.6088186235	wrappers
0.6088133133	maybe
0.6088102196	requesters
0.6088068046	worst case scenario
0.6088052583	frequency shift
0.6088012060	hybrid fuzzy
0.6087964699	conjectures
0.6087924909	polarizations
0.6087833824	excitement
0.6087721053	bidders
0.6087644700	joint channel
0.6087607617	language pairs
0.6087598256	watermarks
0.6087551961	self regulation
0.6087370186	averages
0.6087351650	reachable
0.6087351650	capacitors
0.6087107618	orthographic
0.6087066570	project planning
0.6087061905	segments
0.6086988998	advertise
0.6086988998	downloadable
0.6086988998	discharging
0.6086897408	transposed
0.6086897408	standardizing
0.6086897408	applica
0.6086873844	correctly
0.6086843058	local contrast
0.6086711741	flowing
0.6086588529	affected
0.6086471233	senses
0.6086185726	occurred
0.6086133377	breakage
0.6086133377	plaintexts
0.6086133377	1x
0.6085894190	viewed
0.6085817594	observables
0.6085689300	subbands
0.6085669272	target position
0.6085656041	intentions
0.6085455125	dna based
0.6085261866	demonstrations
0.6085164311	stocks
0.6085085628	search based
0.6085083208	equalities
0.6084855586	grades
0.6084851694	voting schemes
0.6084832996	valuations
0.6084734088	computational savings
0.6084567746	appeared
0.6084183062	problem asks
0.6084136714	surgeons
0.6084125948	brought
0.6083938058	suggested
0.6083818688	rebuild
0.6083818688	falsely
0.6083734498	yields
0.6083674131	low precision
0.6083558012	parallel systems
0.6083519798	discourage
0.6083519798	depiction
0.6083420320	learning scenario
0.6083417738	bayesian methods
0.6083268496	outgoing
0.6083213065	minimize
0.6083110067	presentations
0.6083060053	synonyms
0.6083020981	network nodes
0.6082734270	exam
0.6082673830	research groups
0.6082171114	detection technique
0.6081522252	subsequences
0.6081396142	ethernet networks
0.6081370910	imperceptibility
0.6081212287	comprehensible
0.6081134818	unimodal
0.6081009318	playback
0.6080948350	question answering system
0.6080927618	enlarged
0.6080913774	business performance
0.6080854253	subband
0.6080850285	updating
0.6080834092	triples
0.6080658787	image filtering
0.6080435953	precursor
0.6080415734	complex dynamics
0.6080356903	extent
0.6080041565	keep
0.6079987718	variabilities
0.6079924795	target objects
0.6079820983	hyperbolic systems
0.6079803380	bypassing
0.6079675275	artists
0.6079646303	multiple view
0.6079168056	safety critical applications
0.6079050418	uml state
0.6078969985	tastes
0.6078969985	posited
0.6078969985	relocate
0.6078969985	restrain
0.6078969985	3db
0.6078969985	vorgestellt
0.6078701875	outbreak
0.6078279964	riders
0.6078235374	solutions
0.6078187162	tested
0.6078172248	scanners
0.6078099179	experimental evaluations
0.6077979555	fuzzy models
0.6077907503	linear minimum mean square error
0.6077804475	inside
0.6077794563	copying
0.6077701899	research community
0.6077661700	constructs
0.6077295229	whole
0.6076960335	multiple attribute
0.6076633848	crawlers
0.6076580927	extends
0.6076567360	snapshots
0.6076512071	prudent
0.6076512071	untyped
0.6076427033	weight functions
0.6076421877	trying
0.6076401090	datas
0.6076395155	sustained
0.6076235124	concerns
0.6076194926	expected values
0.6076083475	entirely
0.6076025119	registrations
0.6075982353	experimental studies
0.6075537577	periodical
0.6075356668	analytical solutions
0.6075165732	web community
0.6075105621	tridiagonal
0.6075076692	haptically
0.6075069962	abrupt
0.6074855586	females
0.6074608281	image noise
0.6074319689	phases
0.6074216256	simplistic
0.6074168365	migrations
0.6074168365	multiplicities
0.6074115761	address
0.6074097185	complex event
0.6074029935	prescribing
0.6073806651	agreement protocol
0.6073653566	sizes
0.6073475275	logistics network
0.6073435053	low complexity algorithm
0.6073175193	dictionary based
0.6073098444	interdependent
0.6073043333	evaluation index
0.6072370186	unambiguous
0.6072256041	estimations
0.6072177245	network on chips
0.6072091786	outpatient
0.6071968329	quality monitoring
0.6071481661	amounts
0.6071413702	desired
0.6071060132	teleconferencing
0.6071060132	monotonous
0.6071060132	immature
0.6071060132	causally
0.6070748397	revoke
0.6070748397	quizzes
0.6070748397	1t
0.6070748397	financially
0.6070748397	depolarization
0.6070748397	tickets
0.6070198002	takes
0.6070189366	based intrusion detection
0.6070070440	processes
0.6069803319	unfolds
0.6069803319	exerts
0.6069803319	warranted
0.6069803319	teaches
0.6069803319	minimises
0.6069803319	shipped
0.6069622963	peer to peer
0.6069456240	academic performance
0.6069444581	ann based
0.6069293174	reconstruct
0.6069233132	high recall
0.6069146172	uncommon
0.6069122913	speech technology
0.6069094932	showed
0.6068831096	discriminates
0.6068831096	debated
0.6068831096	disregarded
0.6068831096	impetus
0.6068831096	deduces
0.6068831096	foreseeable
0.6068831096	configures
0.6068831096	excludes
0.6068831096	enthusiasm
0.6068831096	insufficiently
0.6068619631	assessed
0.6068607561	3x
0.6068607561	distracting
0.6068607561	attenuating
0.6068586556	assess
0.6068546118	sensory information
0.6068505581	tumors
0.6068412300	peer nodes
0.6068031840	lifespan
0.6068031840	exposures
0.6067494069	challenging
0.6067458858	buffers
0.6067137800	transmit
0.6067097414	majors
0.6066819249	feature representation
0.6066795297	state action
0.6066795199	haben
0.6066696458	recently published
0.6066419621	radarsat 2
0.6066373182	finest
0.6066246492	doing
0.6066219376	installed
0.6065869066	newly introduced
0.6065603000	based super resolution
0.6065601829	doped
0.6065543567	trade off
0.6065376947	transient analysis
0.6065289169	insertions and deletions
0.6065261866	contingent
0.6065261866	extendable
0.6065261866	legislation
0.6065127472	architectural models
0.6065072208	vehicle uav
0.6064732071	recognized
0.6064563982	unresolved
0.6064527016	imprecision
0.6064504068	ideals
0.6064251785	subspace method
0.6064240760	yield
0.6064219881	compete
0.6063982656	novices
0.6063747805	inhibits
0.6063747805	generalisations
0.6063747805	regain
0.6063747805	popularization
0.6063747805	expandable
0.6063516849	pronunciations
0.6063222674	schedulers
0.6063211220	commensurate
0.6063211220	conceive
0.6063211220	ubiquitously
0.6063119630	formidable
0.6063119630	abstractly
0.6063119630	loosing
0.6063064008	tetrahedron
0.6063064008	superset
0.6063064008	stranded
0.6062834424	misunderstanding
0.6062834424	largescale
0.6062762386	environmental information
0.6062751754	faced
0.6062725210	boosting algorithm
0.6062650843	main contributions
0.6062647315	disturbing
0.6062476832	procedures
0.6062460213	took
0.6062370186	increment
0.6062224518	event b
0.6061907416	solve
0.6061886340	accomplished
0.6061686039	torso
0.6061552454	embedded system design
0.6061532878	access control mechanisms
0.6061426140	second order statistics
0.6061319798	chemically
0.6061262826	times
0.6060965711	occur
0.6060944713	quadratic optimization
0.6060559181	pick and place
0.6060376495	permits
0.6060341581	implement
0.6059993552	permissive
0.6059993552	resized
0.6059993552	6dof
0.6059837807	morphisms
0.6059768785	recognition task
0.6059607448	brains
0.6059546954	disturb
0.6059305243	received
0.6059228660	segmentation approach
0.6059091176	physiological parameters
0.6058840378	lower cost
0.6058767682	detect anomalies
0.6058667110	euclidean plane
0.6058433195	postures
0.6058433010	impacting
0.6058160272	small samples
0.6057767421	relatives
0.6057767421	stripes
0.6057767421	rugged
0.6057571319	distant
0.6057415145	an exploratory study
0.6057396950	vehicle routing problem with time windows
0.6057345404	disastrous
0.6057345404	decrypted
0.6057345404	cohorts
0.6057345404	intervening
0.6057342295	coefficients
0.6057338143	policy languages
0.6057299729	enable
0.6056957017	64
0.6056920502	inhibited
0.6056920502	4k
0.6056920502	kilometers
0.6056920502	retransmitted
0.6056899160	design options
0.6056885538	external world
0.6056665560	fixations
0.6056576314	periodically
0.6056466906	m psk
0.6056218102	motions
0.6056042655	shows
0.6056001746	achieve
0.6055993194	delete
0.6055970460	non gaussian
0.6055921675	m ary
0.6055902196	proficient
0.6055897043	mounted display
0.6055835518	tones
0.6055474471	usually
0.6055395186	amongst
0.6055343730	end nodes
0.6055250858	guarantees
0.6055232618	disconnection
0.6054988126	epoch
0.6054741848	illegally
0.6054728747	allocated
0.6054719077	satisfied
0.6054717318	assert
0.6054690744	time of arrival toa
0.6054651441	greatly improves
0.6054430750	real word
0.6054285520	suits
0.6054096988	transcripts
0.6053587168	integrand
0.6053534440	allocate resources
0.6053484161	compute unified device
0.6053331526	unconditional
0.6053329579	broadcasts
0.6052987168	interpolates
0.6052987168	disagree
0.6052923651	potentiality
0.6052923651	retransmit
0.6052923651	incomparable
0.6052883208	approximable
0.6052856272	matroids
0.6052634882	paying
0.6051944223	blurring
0.6051769294	coherency
0.6051729851	centroids
0.6051408515	33v
0.6051408515	screened
0.6051408515	declined
0.6051219947	forgotten
0.6051208225	synthetic data
0.6051121082	control theoretic
0.6050620371	cheaper
0.6050599045	detections
0.6050243565	real time traffic
0.6050193861	mobiles
0.6050191497	transmission control
0.6050163117	geq
0.6050163117	selfishly
0.6050163117	conceptualisation
0.6050163117	sparser
0.6050061794	listing
0.6050024228	notified
0.6050024228	130nm
0.6050024228	lighter
0.6050024228	waits
0.6050024228	distill
0.6049937674	19
0.6049706985	closed form expression
0.6049684943	voices
0.6049676280	captured
0.6049315202	longitudinal data
0.6049268496	codebooks
0.6049252271	reference models
0.6049165273	relationships
0.6049104931	research topics
0.6048966505	abstract domain
0.6048844343	events
0.6048708544	unexpected events
0.6048671473	heuristic approaches
0.6048627515	equipments
0.6048462637	affect
0.6048366619	gps based
0.6048209132	recognizers
0.6048199201	development team
0.6048146231	involves
0.6047911720	exits
0.6047906598	refinements
0.6047844314	concerned
0.6047794563	vocabularies
0.6047742927	near optimal
0.6047711308	combinations
0.6047690581	cations
0.6047690581	collaborated
0.6047690581	heightened
0.6047398316	derived
0.6047398135	unwanted
0.6047345560	size
0.6047262181	proposes
0.6047151592	structural properties
0.6046980354	design approach
0.6046936756	45
0.6046920502	encodingdecoding
0.6046865344	types
0.6046856354	interrupted
0.6046785159	circumstance
0.6046748794	mean
0.6046633648	information resources
0.6046599123	semantic network
0.6046427035	21
0.6046370910	rigor
0.6046226761	ability
0.6046178526	tried
0.6045874507	extracted
0.6045800484	feasible
0.6045574763	optimal trajectory
0.6045347736	builds
0.6045267742	aims
0.6044856423	ever
0.6044822217	low resource
0.6044741848	interferes
0.6044741848	instructive
0.6044641757	access control scheme
0.6044518384	significantly reduced
0.6044357248	formalizations
0.6044177925	repeatable
0.6044007265	type 2 fuzzy
0.6043736111	composed
0.6043689944	computational capabilities
0.6043636830	clicked
0.6043495468	processed
0.6043340254	positions
0.6043298617	subtypes
0.6043289801	evaluated
0.6043063780	similar
0.6042934565	demands
0.6042678471	illuminated
0.6042629168	channel errors
0.6041796094	evidences
0.6041619934	discriminatory
0.6041410219	indefinitely
0.6041410219	ascribed
0.6041410219	posses
0.6041410219	occasion
0.6041403299	convinced
0.6041243492	rotate
0.6041176410	viscoelastic
0.6041160014	performance gains
0.6041049045	formulated
0.6040996450	distributively
0.6040996450	imitates
0.6040996450	inconclusive
0.6040996450	prolongs
0.6040996450	remedies
0.6040931862	explained
0.6040874680	packet inspection
0.6040652808	packings
0.6040648167	outperforms
0.6040442986	unnecessary
0.6039948387	computer forensics
0.6039839396	random matrix
0.6039831526	flaw
0.6039724621	output signal
0.6039646043	sha 3
0.6039635057	move
0.6039546954	multiplying
0.6039503387	individual privacy
0.6039306406	non dominated sorting genetic
0.6039051460	wireless standards
0.6038860132	heavier
0.6038860132	watched
0.6038860132	representativeness
0.6038734737	sha 1
0.6038732365	gaussian model
0.6038687882	speed estimation
0.6038609639	lack
0.6038553572	overhead
0.6038502206	explored
0.6038474094	transformed
0.6038458371	understood
0.6038413538	datasets
0.6038298617	prompts
0.6037880998	data services
0.6037785967	model free
0.6037730196	70
0.6037569910	intrusion detection system
0.6037505812	starts
0.6037441902	assumed
0.6037175556	arrivals
0.6037115831	adaptive network based fuzzy inference
0.6036999133	negative samples
0.6036701406	citizens
0.6036640632	recurring
0.6036601044	predicted
0.6036504600	search query
0.6036390974	unified framework
0.6036256985	unveil
0.6036256985	particularity
0.6036256985	matrixes
0.6036256627	active nodes
0.6036202989	linearizing
0.6036202989	realworld
0.6036116996	believable
0.6036011804	archived
0.6035860500	face recognition systems
0.6035648105	formulae
0.6035510159	launching
0.6035490977	second order
0.6035107730	beds
0.6034728698	collected
0.6034659197	timing errors
0.6034575726	coarsening
0.6034274584	network devices
0.6034170762	preorder
0.6034170762	intents
0.6034167646	legs
0.6033917367	combine
0.6033789413	create
0.6033775693	fluctuating
0.6033680321	suspicious
0.6033634685	localization and mapping
0.6033397530	solved
0.6033347123	subscription
0.6033304870	consisting
0.6033280945	datacenters
0.6033212469	due
0.6033095718	id based
0.6033069204	tighter
0.6032874199	omission
0.6032874199	painted
0.6032583197	tight bound
0.6032418968	greater
0.6032382441	equalize
0.6032382441	concerted
0.6032382441	segregated
0.6032271754	satisfactory
0.6032039320	micro electro mechanical systems
0.6030952585	industrial designs
0.6030872436	empirical observations
0.6030860010	data link layer
0.6030823265	aggregates
0.6030792784	scenarios
0.6030790292	selections
0.6030270572	switching surface
0.6030219810	usable
0.6029989631	realized
0.6029988404	code construction
0.6029657037	syllables
0.6029458858	genomes
0.6029453904	arrangements
0.6029407618	couples
0.6029006918	numerical approximation
0.6028977055	full diversity
0.6028929349	serious
0.6028917731	future research
0.6028634168	main conclusion
0.6028612925	self similarity
0.6028234264	behaviors
0.6028172366	linear transformations
0.6027980096	basic principles
0.6027759820	submissions
0.6027731468	interpretable
0.6027279770	model based control
0.6027264090	chromosomes
0.6027228028	domain analysis
0.6026958626	functionality
0.6026854152	targets
0.6026769714	end to end throughput
0.6026688771	added
0.6026638509	capable
0.6026586737	linear transform
0.6026511258	exceptional
0.6026144710	salt and pepper
0.6026011804	discarding
0.6025979482	setting
0.6025922694	variations
0.6025668833	global positioning
0.6025452909	properties
0.6025445145	pruning algorithm
0.6025397285	explicitly
0.6025334401	suffer
0.6025272410	input to state stability
0.6025259622	clauses
0.6025127826	thick
0.6024935231	virtues
0.6024935231	rationales
0.6024935231	contacted
0.6024926634	learning activity
0.6024738302	limitations
0.6024610066	bacterium
0.6024246245	hardware designs
0.6024185529	activations
0.6024112321	occluding
0.6024102200	multiple layers
0.6024089051	compilers
0.6024069911	integer linear
0.6024020199	multi class problems
0.6023909290	specialists
0.6023814763	rate adaptive
0.6023680321	assertions
0.6023672385	visitors
0.6023669462	thereof
0.6023221275	energy optimization
0.6023151650	related
0.6023056333	sampling interval
0.6023004562	co training
0.6022938553	language resources
0.6022935154	longer term
0.6022422650	real time rendering
0.6022276514	pilots
0.6022232464	packing problems
0.6022127988	years
0.6022092539	programmes
0.6022081924	point to multipoint
0.6021985865	opinions
0.6021952104	2003
0.6021947743	design implications
0.6021941225	desktop applications
0.6021551671	planning process
0.6021531108	extract
0.6021509708	activates
0.6021509708	deteriorated
0.6021509708	downside
0.6021509708	discriminability
0.6021509708	contacting
0.6021461510	evaluation model
0.6021375168	iff
0.6021284798	unable
0.6021198826	anchors
0.6021005987	theoretical predictions
0.6020969595	provide
0.6020703721	higher layers
0.6020485472	regressor
0.6020302717	communication efficiency
0.6020170387	data recovery
0.6020100486	assessments
0.6020043563	data source
0.6019944274	mapping algorithm
0.6019808979	cells
0.6019790238	random field model
0.6019612855	mines
0.6019554559	suggest
0.6019135400	subscribers
0.6019089051	responsiveness
0.6018926188	content based image
0.6018787158	real time tasks
0.6018605902	crawled
0.6018448239	lower
0.6018268564	fluctuate
0.6018268564	necessitated
0.6018268564	substantiated
0.6018268564	circumvented
0.6018268564	longstanding
0.6018268564	maliciously
0.6018268564	fostered
0.6018268564	precludes
0.6018268564	shortens
0.6018253257	operations
0.6018222504	60ghz
0.6018165987	versus
0.6018009614	included
0.6017915541	curvatures
0.6017867926	data mining applications
0.6017857835	phenotypes
0.6017781371	computational effort
0.6017704358	comparable
0.6017690880	fundamental requirement
0.6017643573	filtering algorithm
0.6017595935	olog n
0.6017491680	agent based framework
0.6017229724	terms
0.6016792252	existing protocols
0.6016765823	construct
0.6016554909	defective
0.6016498192	impersonation
0.6016479521	intuitions
0.6016476057	outsource
0.6016476057	remeshing
0.6016432196	extremely low
0.6016398698	build
0.6016359447	computer algebra
0.6016333433	great success
0.6016080966	postings
0.6015869777	operation
0.6015853015	develop
0.6015583220	netlist
0.6014994563	zones
0.6014929998	settings
0.6014888704	3s
0.6014834328	data format
0.6014677006	alphabets
0.6014523621	solvent
0.6014323493	polynomial systems
0.6014297404	underscore
0.6014297404	jeopardize
0.6014297404	90s
0.6014297404	competitively
0.6014297404	plagued
0.6014297404	appropriated
0.6014297404	hampers
0.6014297404	reconsider
0.6014297404	ascertained
0.6014297404	finishes
0.6014297404	pursues
0.6014297404	affirmative
0.6014232019	support vector machine svm classifier
0.6014096988	rotations
0.6013852545	reasonably
0.6013832262	tackle
0.6013729514	based routing protocol
0.6013314618	phase estimation
0.6013257175	away
0.6013192037	fully bayesian
0.6013153847	optimal controller
0.6012980607	stressing
0.6012980607	vertebrate
0.6012812463	biometric data
0.6012602628	batches
0.6012542724	unsatisfied
0.6012542724	harnesses
0.6012542724	intelligible
0.6012542724	settles
0.6012542724	bulky
0.6012542724	perceives
0.6012517429	probed
0.6012492490	membranes
0.6012181861	statistical analyses
0.6012121429	emit
0.6011747751	based reasoning
0.6011706944	processing power
0.6011662774	split and merge
0.6011598608	behavior based
0.6011501611	issuing
0.6011426912	shape information
0.6011370891	continues
0.6011312032	utilized
0.6011245865	density psd
0.6011071110	user interference
0.6010847639	egovernment
0.6010655221	web design
0.6010257398	inputs
0.6010180242	modelled
0.6010155711	imperceptible
0.6010155711	irregularities
0.6010132900	covariances
0.6009852319	discussed
0.6009713616	figure of merit
0.6009336129	maneuvers
0.6009282825	women
0.6009251349	generate
0.6009048003	value
0.6008586277	breakthroughs
0.6008586277	compiles
0.6008586277	reap
0.6008586277	foresee
0.6008586277	intervene
0.6008586277	embraces
0.6008586277	overwhelm
0.6008586277	profoundly
0.6008545404	subregions
0.6008527001	compares favorably
0.6008320256	delineated
0.6008268564	10x
0.6008268564	leaning
0.6008268564	competes
0.6008215531	strengthened
0.6007584798	voice activity
0.6007466584	phones
0.6007364580	global state
0.6007264420	uncontrolled
0.6007246137	shrinks
0.6007246137	risen
0.6007246137	insure
0.6007101926	responders
0.6007101926	lobes
0.6007071571	receptors
0.6007070051	enhance
0.6006929053	proven
0.6006891685	acknowledgement
0.6006854493	intended
0.6006685485	primary signal
0.6006563545	classes
0.6006546676	slowing
0.6006533855	adopted
0.6006508676	unit test
0.6006355466	increased
0.6006312479	bids
0.6006268719	host based
0.6006245497	channel estimation algorithm
0.6006163392	queue based
0.6006034356	call
0.6005664482	twice
0.6005599999	conductor
0.6005405357	prediction based
0.6005324737	dexterity
0.6005231014	peer to peer networks
0.6005189243	login
0.6005063781	just
0.6004752712	doors
0.6004746419	degrees of freedom
0.6004468571	unfairness
0.6004398008	timescales
0.6004398008	stake
0.6004344865	motivating
0.6004241472	causal models
0.6004151560	candidates
0.6004002989	ecologically
0.6004002989	visualise
0.6003918421	regard
0.6003660358	mining techniques
0.6003594748	feature selection algorithms
0.6003564931	node distribution
0.6003418439	real
0.6003311428	necessarily
0.6003100118	binds
0.6002898861	breakthrough
0.6002807429	before
0.6002767211	contrasts
0.6002758574	essential
0.6002641803	networked control
0.6002337866	monkeys
0.6002061957	design exploration
0.6001806227	early diagnosis
0.6001743040	did
0.6001648257	visualization methods
0.6001626323	perform
0.6001557827	subdomains
0.6001545811	potent
0.6001387700	collaborative business
0.6001206170	feedback based
0.6001093306	underlies
0.6001018360	quantizing
0.6001018360	unprotected
0.6001018360	pushes
0.6000971941	thing
0.6000971941	interdependence
0.6000711636	contained
0.6000241989	human communication
0.6000100486	predictors
0.6000082234	appears
0.5999972268	anonymously
0.5999972268	summarise
0.5999972268	guesses
0.5999972268	1950s
0.5999972268	portray
0.5999972268	informa
0.5999908382	colorable
0.5999069137	deployed
0.5998931559	eukaryotes
0.5998931559	appreciable
0.5998931559	conceivable
0.5998931559	intimately
0.5998554763	feels
0.5998554763	operationally
0.5998554763	incompatibility
0.5998554763	atop
0.5998554763	rigidly
0.5998554763	exceptionally
0.5998554763	corollaries
0.5998385022	positive real
0.5998285990	call centers
0.5998082133	perception based
0.5998060565	optimal transmit
0.5997914859	unsuccessful
0.5997906598	uncorrelated
0.5997867895	arises
0.5997840997	marginals
0.5997798214	conducted
0.5997746407	input text
0.5997711006	extents
0.5997711006	denied
0.5997655457	extraordinary
0.5997599033	search tasks
0.5997464524	polluted
0.5997464524	extraneous
0.5997462871	recursive algorithm
0.5997318705	protections
0.5997318705	strikes
0.5997191273	coalitions
0.5997067717	functional brain
0.5997056763	fold recognition
0.5997017375	2d3d
0.5997017375	eavesdroppers
0.5996755965	word based
0.5996684096	fingertips
0.5996534134	articulate
0.5996418004	overlaps
0.5996396721	touched
0.5996396721	customary
0.5996253613	task relevant
0.5996219595	called
0.5996104300	generation 3g
0.5995917665	grasps
0.5995808672	privacy requirements
0.5995785555	coincident
0.5995692664	vibrations
0.5995569828	modeling techniques
0.5995116403	woven
0.5995074086	erase
0.5994875985	skilled
0.5994868995	image intensity
0.5994501333	characterized
0.5994347777	non destructive
0.5994263634	plans
0.5993998866	multi hop communication
0.5993946038	intensity based
0.5993784121	elearning
0.5993569514	translated
0.5993205689	40
0.5993153309	endpoints
0.5993022866	scrutiny
0.5992925299	line of sight
0.5992864733	instructed
0.5992774397	replies
0.5992636886	quality of service qos guarantees
0.5992501245	emulated
0.5992458434	texts
0.5992446603	image understanding
0.5992434588	1992
0.5992256398	impediments
0.5992038098	18
0.5991982448	perceived usefulness and perceived
0.5991964148	underpinning
0.5991917394	goals
0.5991708949	property holds
0.5991668004	thoughts
0.5991631950	prostheses
0.5991631950	subnetwork
0.5991300808	two stage stochastic
0.5991214815	whether
0.5991209022	service design
0.5991035907	state vector
0.5990936760	computing resource
0.5990905730	assumptions
0.5990874199	delimited
0.5990843997	nicely
0.5990798214	built
0.5990728228	illustrated
0.5990709912	identification accuracy
0.5990612228	hereafter
0.5990585145	discovery protocol
0.5990447285	colliding
0.5990446108	security patterns
0.5990367934	represents
0.5990274119	items
0.5990195096	user model
0.5989971292	control subjects
0.5989921429	rethink
0.5989921429	generalizability
0.5989909172	shape optimization
0.5989552034	open systems
0.5989527108	computational efficiency
0.5989303180	reduction method
0.5989267038	sensor systems
0.5989154252	neighborhoods
0.5989134750	slowdown
0.5989025784	user authentication scheme
0.5988813341	retailers
0.5988760887	em based
0.5988746492	spatial dimension
0.5988652565	claiming
0.5988652565	greedily
0.5988602546	likelihood ratios
0.5988585555	complimentary
0.5988585555	corresponded
0.5988535330	wafers
0.5988479293	scheme outperforms
0.5988427700	play
0.5988292097	sub carrier
0.5988260263	convolutions
0.5988260263	footage
0.5988179650	driven design
0.5988164848	packets
0.5987740002	wants
0.5987642383	input signals
0.5987338279	witnessing
0.5987338279	voluntarily
0.5987287208	tampered
0.5987062832	25
0.5986962790	understandability
0.5986861230	performed
0.5986670076	successes
0.5986589776	spatial constraints
0.5986162478	educated
0.5986162478	farther
0.5986091763	distorted
0.5986046984	obtain
0.5986034884	increments
0.5986034884	pleasant
0.5985907774	semantic concept
0.5985833498	trajectory based
0.5985823213	rates
0.5985794323	excitation
0.5985664733	diseased
0.5985478459	feedbacks
0.5985447285	duplications
0.5985199381	beneficial
0.5985014558	animals
0.5984917234	synthesis tool
0.5984709979	co creation
0.5984354610	control algorithm
0.5984253376	basic building blocks
0.5984181433	special case
0.5984153309	mention
0.5983776317	exist
0.5983649653	attributes
0.5983441063	blends
0.5983328377	greatly improve
0.5983305601	prioritizes
0.5983305601	disappears
0.5983305601	rearranged
0.5983305601	initiates
0.5983305601	himher
0.5983305601	evoke
0.5983305601	exiting
0.5983305601	elicits
0.5983169106	global features
0.5982988643	venue
0.5982849216	n ary
0.5982840997	judges
0.5982731888	childs
0.5982688704	localizes
0.5982688704	inch
0.5982688704	unimportant
0.5982508628	sequence length
0.5982319873	requires
0.5982306944	change points
0.5982220750	consists
0.5982146227	data management systems
0.5982027711	meters
0.5981691942	forms
0.5981666843	nm cmos
0.5981643952	superior
0.5981554849	search trees
0.5981370034	dsp applications
0.5981072485	modeling notation
0.5980727598	reduces
0.5980425872	intrusions
0.5980123464	counterintuitive
0.5980123464	concomitant
0.5979731932	reserves
0.5979731162	confused
0.5979731162	collapses
0.5979703756	simple proof
0.5979671917	estimate
0.5979505108	advantage
0.5979359670	steps
0.5979111889	cell based
0.5979057537	current location
0.5979034542	unobserved
0.5978903292	freely
0.5978901689	isothermal
0.5978751488	artistic
0.5978652710	uncovers
0.5978535330	qui
0.5978355662	left right
0.5978204515	successfully
0.5978148050	authors
0.5977910527	levels
0.5977664579	certify
0.5977589368	dynamic programming approach
0.5977412649	explore
0.5977225105	outside
0.5976972855	achieves
0.5976918352	zeros
0.5976848797	workflow technology
0.5976746540	oscillations
0.5976531902	call center
0.5976507950	color features
0.5976395893	dynamic characteristics
0.5976354763	consult
0.5976171840	waiting time
0.5976144286	droplet
0.5975652710	settled
0.5975489891	discovery process
0.5975415524	interactive visual
0.5975301886	evaluate
0.5975295375	devoted
0.5975255134	17
0.5975198115	open issues
0.5975137678	international standard
0.5975130977	non rigid registration
0.5975011239	insensitivity
0.5975011239	multifaceted
0.5974634276	inconvenient
0.5974410980	outages
0.5974384391	phonemes
0.5974230876	usages
0.5973937055	minimised
0.5973930201	overflows
0.5973930201	deaths
0.5973836323	bitstream
0.5973672385	leaders
0.5973412611	analyzed
0.5973397422	payments
0.5973323377	misalignment
0.5973318194	trained
0.5973293470	geometries
0.5973273264	clearer
0.5973249887	excitations
0.5973229633	declines
0.5973199811	symbol by symbol
0.5972970285	animate
0.5972933909	reduce
0.5972731888	serviced
0.5972612067	significantly
0.5972499832	actions
0.5972450547	accurately
0.5972435657	aircrafts
0.5972245390	intense
0.5972196461	form
0.5972030399	exponents
0.5971694133	deformation model
0.5971534134	blindly
0.5971470060	calculated
0.5971116735	linear kernel
0.5971027711	hotspots
0.5970987318	attended
0.5970978096	apparent
0.5970957961	sampling strategy
0.5970843501	genres
0.5970647274	annually
0.5970485269	coder
0.5970323191	blow up
0.5970274232	desirable properties
0.5969515042	difference sets
0.5969340977	emails
0.5969308165	probabilistic modeling
0.5969065197	information collection
0.5968991043	investigated
0.5968826439	held
0.5968826251	improved particle swarm
0.5968709005	tree representation
0.5968622650	channel codes
0.5968394765	many core processors
0.5968322199	uninterrupted
0.5968075270	procedure
0.5967960019	clinicians
0.5967682236	promising
0.5967664465	multiple faults
0.5967633563	support tool
0.5967435657	effectors
0.5967432839	bandwidth usage
0.5967333893	relative positions
0.5967286152	multiple classifier
0.5967084299	50
0.5967012675	distinctly
0.5966952633	software based
0.5966813445	serialization
0.5966805832	benefits
0.5966748657	collaborative systems
0.5966668181	delay estimation
0.5966511258	countermeasure
0.5966374300	travels
0.5966340977	wheels
0.5966265440	dynamic analysis
0.5966210879	subtle
0.5965919353	no
0.5965833843	permutation based
0.5965330477	counted
0.5965095631	high quality solutions
0.5965034884	epochs
0.5965034884	terminated
0.5964884205	quadratically
0.5964878614	conp
0.5964878614	recreate
0.5964820397	kept
0.5964745390	successively
0.5964582287	biological phenomena
0.5964368013	routing problems
0.5964273034	arbitrarily small
0.5964177719	example
0.5964140769	concatenating
0.5964020346	recipients
0.5963995119	offers
0.5963916553	clinician
0.5963847589	grid nodes
0.5963624181	low level visual
0.5963599474	appearance model
0.5963597893	training data set
0.5963451146	eclipse plug in
0.5963365640	conserved
0.5963343997	underutilized
0.5963329599	face recognition algorithm
0.5963198634	optimal weights
0.5963175577	excellent agreement
0.5963020346	trouble
0.5963014064	growth model
0.5962885946	errors
0.5962884139	constraint set
0.5962764799	adopts
0.5962480883	chords
0.5962319487	wasting
0.5962319487	occupying
0.5962269038	combines
0.5962208246	validated
0.5962035254	indoors
0.5962007183	applicability
0.5961983553	polygons
0.5961931108	tokens
0.5961915696	design theory
0.5961615404	engage
0.5961563906	cooperative wireless
0.5961556108	animations
0.5961453337	estimated
0.5961350630	attackers
0.5961027711	males
0.5960824417	propagating
0.5960819232	generally speaking
0.5960547208	expenditures
0.5960542298	elements
0.5960391099	and mapping slam
0.5960363577	101
0.5960330477	meaningless
0.5960321230	ilp based
0.5959812675	hurdle
0.5959698990	task based
0.5959392099	coordination mechanism
0.5959369799	backpropagation algorithm
0.5959340977	microphones
0.5959192775	automatic clustering
0.5958961221	static power
0.5958862855	simultaneously
0.5958837554	performers
0.5958685026	affiliated
0.5958685026	deepen
0.5958564502	preliminary experiment
0.5958534884	uniprocessor
0.5958218005	threaten
0.5958195836	2000
0.5958111230	introduced
0.5957972780	important
0.5957951751	whereas
0.5957782926	event stream
0.5957641640	layers
0.5957280541	referred
0.5957257248	decomposition based
0.5957231228	energy based
0.5957196396	substantive
0.5957196396	recalled
0.5956958804	continue
0.5956955421	broad class
0.5956946384	great advantage
0.5956916594	multi target
0.5956444726	due dates
0.5956280890	demonstrated
0.5956170729	expressed
0.5956053883	generating functions
0.5955837118	established
0.5955785254	runtimes
0.5955660287	training process
0.5955658357	regression method
0.5955570103	behaviours
0.5955478434	apply
0.5955401101	emphasises
0.5955401101	discards
0.5955306571	digital age
0.5955195974	earn
0.5955195974	unfolded
0.5955195974	disconnections
0.5954745390	featuring
0.5954693403	lightpaths
0.5954505734	efficient inference
0.5954308465	posed
0.5954038035	fluid model
0.5953999334	video streaming over
0.5953849791	summed
0.5953654632	preprocessing step
0.5953574493	synthesis method
0.5953494527	imperfections
0.5953397422	producers
0.5953397422	clicks
0.5953289801	employed
0.5953263063	ture
0.5953263063	reliant
0.5953263063	penalizing
0.5953215422	textured
0.5953163248	wireless local area
0.5952875766	follows
0.5952515955	management protocol
0.5952450431	repairs
0.5952191569	ware
0.5952191163	high speed downlink
0.5952160399	2004
0.5952135898	initial values
0.5952101847	0
0.5951991406	shortages
0.5951900952	60
0.5951864898	inconsistencies
0.5951556108	vague
0.5951417882	cellular communication
0.5951401800	reflectivity
0.5950977091	creators
0.5950977091	competent
0.5950908558	signal recovery
0.5950836586	depicting
0.5950819487	deform
0.5950659815	attaining
0.5950567006	grid size
0.5950533074	hierarchical levels
0.5950333108	subcortical
0.5950331836	advertised
0.5950146720	investments
0.5949910591	higher
0.5949616191	underwent
0.5949616191	hybridized
0.5949530065	initial configuration
0.5949276009	endeavors
0.5949276009	usefully
0.5949259273	initialization
0.5948749444	quite
0.5948075817	distributed sensing
0.5947966476	devastating
0.5947966476	generalizable
0.5947966476	preclude
0.5947966476	sacrifices
0.5947966476	revolutionized
0.5947966476	expects
0.5947966476	lessen
0.5947966476	narrower
0.5947966476	troublesome
0.5947949557	indexes
0.5947707429	assignment algorithm
0.5947677566	channel length
0.5947654101	presumed
0.5947654101	exported
0.5947402089	penalties
0.5947284131	software measurement
0.5947160399	80
0.5946935423	denser
0.5946850834	stream based
0.5946839688	residues
0.5946751725	master problem
0.5946692614	depend
0.5946662762	k anonymity
0.5946509008	shots
0.5946374383	spike timing dependent
0.5946349513	prohibit
0.5946349513	unfavorable
0.5946349513	80211a
0.5946349513	conclusive
0.5946349513	complication
0.5946110120	think aloud
0.5946045546	x band
0.5945908873	real world datasets
0.5945896987	search tool
0.5945853733	good
0.5945850902	commodities
0.5945839912	manual intervention
0.5945522902	profitable
0.5945360915	24
0.5945107066	multiple relay
0.5944985082	image similarity
0.5944962808	6lowpan
0.5944742271	voters
0.5944648054	structure from motion
0.5944388611	involving
0.5944236466	feasibility study
0.5943945317	messages
0.5943940145	frequency offset cfo
0.5943870345	include
0.5943519197	overestimation
0.5943317231	differential operators
0.5942966815	transcriptions
0.5942500628	theoretical model
0.5941702868	cohen grossberg neural networks with
0.5941329567	latter
0.5941277120	repaired
0.5940769719	choosable
0.5940729659	joint design
0.5940721738	support systems
0.5940653718	admissible
0.5940424721	inherit
0.5940424721	dubbed
0.5940415105	well founded
0.5940317709	estimates
0.5940291037	require
0.5940173021	predicates
0.5940067294	until
0.5939925293	control algorithms
0.5939499828	intensity distribution
0.5939264082	selected
0.5939079913	predecessors
0.5939079913	natively
0.5939079913	shut
0.5939079913	grew
0.5939079913	disconnect
0.5939079913	posits
0.5939037348	introduce
0.5938937141	closed form solutions
0.5938750408	networking technologies
0.5938663810	revolutionary
0.5938611614	hopes
0.5938611614	decent
0.5938566696	moment based
0.5938507778	circuit elements
0.5938381121	s mac
0.5938332416	covers
0.5938079500	versions
0.5938048413	learning curve
0.5937958610	symptoms
0.5937874736	improve
0.5937734975	companion paper
0.5937731162	wrote
0.5937731162	centuries
0.5937731162	infrequently
0.5937646811	brief announcement
0.5937397829	commented
0.5937397829	analogs
0.5937329062	main elements
0.5937268756	inverses
0.5937268756	encountering
0.5937092585	switches
0.5937012988	mri images
0.5936762537	motivates
0.5936753839	committing
0.5936724364	tracks
0.5936723553	analyze
0.5936590341	close agreement
0.5936447353	forecasting method
0.5936319197	18v
0.5936319197	malfunction
0.5936259762	traffic volume
0.5936224045	priori knowledge
0.5936154941	cavities
0.5936056487	end to end latency
0.5935961464	classification approach
0.5935835556	retrieval methods
0.5935733495	proposed
0.5935605154	primary sequence
0.5935379188	traffics
0.5935370345	manner
0.5935312011	utilities
0.5935240035	input multiple output
0.5934777897	required
0.5934353066	expressible
0.5934237684	harvested
0.5934195457	feedback overhead
0.5933997338	cdna
0.5933995387	heterogeneities
0.5933942198	applicable
0.5933845953	document level
0.5933508737	kann
0.5933471762	extremely difficult
0.5933328235	local minimum
0.5933016919	15
0.5932930325	performance bounds
0.5932904351	touches
0.5932713875	literals
0.5932712001	multivariate data
0.5932708990	means
0.5932576011	hop by hop
0.5932403641	time varying
0.5932124889	correspond
0.5932083851	pulses
0.5932004087	determined
0.5931918464	plotted
0.5931688886	random bits
0.5931687788	by
0.5931581520	business environment
0.5931309588	demographics
0.5931224191	corresponds
0.5931217150	precomputed
0.5930947406	sowie
0.5930836388	addressed
0.5930764561	initiatives
0.5930549314	actuation
0.5930503143	studied
0.5930473177	wireless sensor network applications
0.5930405408	teaching learning
0.5930350050	deteriorating
0.5930236454	1k
0.5930021471	doubled
0.5930021471	skipped
0.5930021471	10th
0.5930021471	tional
0.5930021471	formalise
0.5929494122	activities
0.5929346650	ubiquitous environments
0.5929307891	analysis techniques
0.5929278280	enjoying
0.5929278280	impediment
0.5929132974	insecure
0.5928987416	caused
0.5928954409	minimizers
0.5928629858	fabricated
0.5928508737	denoised
0.5928319034	multiple cores
0.5928232720	chapter presents
0.5928135495	generalises
0.5928135495	asserts
0.5928135495	embraced
0.5928135495	tive
0.5928039256	mountainous
0.5927963191	differ
0.5927664965	measured
0.5927661996	contribute
0.5927521257	postulate
0.5927516270	machine learning and data mining
0.5927413763	aggregation function
0.5927303609	elected
0.5927303609	2x2
0.5927297821	identify
0.5927211696	packet traffic
0.5927060661	one class classification
0.5926910218	includes
0.5926823999	e governance
0.5926360456	mixed model
0.5926260630	oder
0.5926190405	aided diagnosis
0.5926144552	explanations
0.5925995547	sufficiently small
0.5925956111	desires
0.5925877273	located
0.5925536985	significantly improve
0.5925101255	software library
0.5925028919	synthesised
0.5925028919	32nm
0.5925007686	helpful
0.5924996396	1db
0.5924996396	violates
0.5924718464	expedite
0.5924718464	inconvenience
0.5924718464	traverses
0.5924616191	acted
0.5924576172	subtrees
0.5924485263	assigned
0.5924445019	enormously
0.5924289060	real world data sets
0.5924096337	permissible
0.5923899716	human memory
0.5923800190	software fault
0.5923644552	payload
0.5923386352	upgraded
0.5923386352	unreachable
0.5923365835	uncontrollable
0.5923362051	onboard
0.5923223097	attempt
0.5923166658	significant performance improvements
0.5923112398	r tree
0.5923040021	global constraint
0.5922947406	desktops
0.5922905302	covering problems
0.5922891209	enclosed
0.5922891209	weakened
0.5922820599	reasoners
0.5922636952	convince
0.5922636952	burdens
0.5922472260	operate
0.5922411509	point process
0.5922239800	complex wavelet
0.5922059403	edge based
0.5921754409	forecasted
0.5921745127	national institute
0.5921715385	grasped
0.5921512406	control overhead
0.5921436570	structure based
0.5921389953	for
0.5921309588	behaving
0.5921303618	1v
0.5921277120	percentages
0.5921159259	unreliability
0.5921159259	drifts
0.5921131497	task completion
0.5921063063	alternates
0.5921063063	regularize
0.5921063063	finishing
0.5921063063	compresses
0.5921063063	penalize
0.5921063063	confines
0.5921063063	hamper
0.5921063063	attest
0.5921063063	ameliorate
0.5921063063	tricky
0.5921058243	definitive
0.5920935495	closes
0.5920935495	dictate
0.5920935495	testify
0.5920935495	quicker
0.5920860214	regulations
0.5920430344	business to business
0.5920180242	occurring
0.5920132974	accompanying
0.5919891176	noiseless
0.5919727520	components
0.5919717150	rival
0.5919659469	estimation techniques
0.5919495387	hemispheres
0.5919464321	detected
0.5919333634	text to speech
0.5919291981	thicknesses
0.5919022117	online resources
0.5918785046	triangles
0.5918741972	predictive accuracy
0.5918708770	linear time invariant
0.5918705922	intensification
0.5918705922	rudimentary
0.5918705922	phenomenal
0.5918704130	seamlessly integrated
0.5918590447	scaling factors
0.5918495730	propagation environments
0.5918374724	underestimate
0.5918339563	etal
0.5918213772	domain specific knowledge
0.5918060192	large scale parallel
0.5917765627	100mhz
0.5917765627	qualify
0.5917765627	empowers
0.5917765627	inapplicable
0.5917765627	disrupting
0.5917600494	buried
0.5917181840	equally important
0.5917101778	markov random
0.5917016335	time stepping
0.5916896794	interest
0.5916862543	dissipates
0.5916862543	promptly
0.5916862543	attenuate
0.5916821493	stochastically
0.5916753716	developed
0.5916668725	chinese medicine
0.5916511398	drastically reduce
0.5916406835	texture information
0.5916260630	eines
0.5916134636	communication services
0.5916128932	coated
0.5916127785	3t
0.5916075672	discrete time linear
0.5916052675	accumulated
0.5916023979	faulty
0.5915580136	assignment problems
0.5915502685	origins
0.5914785619	underestimated
0.5914785619	strengthens
0.5914714661	noise characteristics
0.5914689482	16
0.5914626640	einen
0.5914616191	subdivided
0.5914544284	investigate
0.5914487340	data handling
0.5914240369	incorporated
0.5914170070	corners
0.5914144153	symbolically
0.5914043590	scientific knowledge
0.5913905690	memberships
0.5913362051	themes
0.5913352964	higher accuracy
0.5913096337	purchased
0.5913067767	filed
0.5913067767	unanswered
0.5913067767	annoying
0.5913067767	submitting
0.5913058243	criticized
0.5913058243	practicable
0.5913046438	task related
0.5912991099	open questions
0.5912735109	showing
0.5912096074	resistances
0.5911826684	resemblance
0.5911790721	order cone programming
0.5911785619	composes
0.5911785619	speculate
0.5911785619	contradict
0.5911785619	dozen
0.5911724910	rejects
0.5911724910	consumptions
0.5911724910	emphasise
0.5911492370	extrapolate
0.5911492370	absorb
0.5911492370	succinctly
0.5911492370	imminent
0.5911492370	reuses
0.5911492370	notorious
0.5911431686	destroying
0.5911431686	objectivity
0.5910804010	four dimensional
0.5910683673	underpin
0.5910683673	manifests
0.5910337361	multiple servers
0.5910052859	threatening
0.5909922304	co occurrence
0.5909911850	performance tradeoff
0.5909688002	requisite
0.5909531484	treated
0.5909361822	a posteriori error
0.5909297778	feasible solution
0.5909230547	traffic scenarios
0.5909049651	suited
0.5908853983	enacted
0.5908850915	specialize
0.5908850915	accomplishes
0.5908850915	diminishes
0.5908850915	destroy
0.5908850915	manners
0.5908850915	meaningfully
0.5908850915	formalised
0.5908850915	fascinating
0.5908821564	accelerations
0.5908782749	notion
0.5908732860	edges
0.5908707185	accumulates
0.5908707185	reinforces
0.5908707185	invokes
0.5908707185	20th
0.5908707185	prohibits
0.5908707185	directs
0.5908707185	prominently
0.5908707185	dictates
0.5908707185	devote
0.5908707185	conceptualize
0.5908561202	image region
0.5908546953	linear optimization
0.5908441186	out of vocabulary
0.5908429361	cases
0.5908307566	time
0.5908279975	causal relationship
0.5908153123	32
0.5908067080	allocation algorithm
0.5907981992	favourable
0.5907981992	impede
0.5907949524	parses
0.5907863658	preliminary experiments
0.5907798128	points
0.5907520650	deleterious
0.5907520650	penetrate
0.5907520650	obeys
0.5907504255	favour
0.5907504255	organise
0.5907365835	dun
0.5907084446	integrations
0.5906955604	interrelated
0.5906891209	ofthe
0.5906799728	automatically generate
0.5906765947	external factors
0.5906522038	document structure
0.5906188550	deforming
0.5906053802	offer
0.5905699026	weights
0.5905502685	subclasses
0.5905467384	main topics
0.5905164096	user studies
0.5905067767	pave
0.5905067767	concisely
0.5905060340	group of pictures
0.5905051048	preconditions
0.5904903121	tolerances
0.5904891453	obscure
0.5904862641	possessed
0.5904846076	payloads
0.5904473952	urgently
0.5904409164	subsumes
0.5904409164	rises
0.5904409164	plugged
0.5904281160	sensations
0.5904215385	postulates
0.5904016180	elucidated
0.5904016180	notify
0.5904016180	necessitating
0.5904016180	progressed
0.5904016180	enlarges
0.5904016180	supervise
0.5904016180	disregard
0.5904016180	mation
0.5904016180	circumvents
0.5904016180	confusing
0.5904016180	paves
0.5904016180	summarises
0.5903847731	poorer
0.5903734434	prescribe
0.5903734434	accompany
0.5903529308	exercised
0.5903420895	throughout
0.5903231258	virtex 5
0.5903079042	approximately
0.5902850307	argue
0.5902787127	difficult
0.5902732493	market conditions
0.5902577323	pairs
0.5902549986	agent behavior
0.5902362543	emulates
0.5902205120	propose
0.5902179903	square error mse
0.5901816716	various
0.5901678123	experimental results
0.5901488275	asymmetries
0.5901373118	belief networks
0.5901358538	model theoretic
0.5901071538	mental model
0.5900809936	interoperate
0.5900809936	postulated
0.5900809936	broadcasted
0.5900332459	complex structures
0.5900129376	referencing
0.5899422166	beamformers
0.5899391111	j math
0.5899362543	categorizes
0.5899100749	research literature
0.5898916467	progresses
0.5898599526	packet routing
0.5898598955	distinctive features
0.5898518672	linear programming model
0.5898409164	parameterize
0.5898282143	subspaces
0.5898203417	timing dependent plasticity
0.5898128996	classification framework
0.5897980445	distort
0.5897980445	engages
0.5897860080	suitable
0.5897741191	precious
0.5897659075	functionally related
0.5897557875	expenses
0.5897390222	2d
0.5897364222	large number
0.5897245688	1a
0.5897148492	wrt
0.5897138386	almost
0.5896966999	inex 2008
0.5896909164	flawed
0.5896909164	owns
0.5896868857	zu
0.5896831087	stored
0.5896636117	discriminative information
0.5896375752	interference level
0.5896224193	functional properties
0.5896213976	particularities
0.5896213976	succeeding
0.5895863468	digital circuit
0.5895444513	integrated platform
0.5895426083	decide
0.5895365685	diminish
0.5894983304	multiplication algorithm
0.5894887866	computed
0.5894682847	weaken
0.5894682847	wastes
0.5894682847	endow
0.5894682847	favourably
0.5894350915	conceptualized
0.5894215385	performer
0.5894170451	directly
0.5894149416	mobile systems
0.5894048718	24ghz
0.5894037880	biological activity
0.5894011309	surpass
0.5894011309	tolerates
0.5894011309	occasions
0.5894011309	titled
0.5894011309	enriches
0.5894011309	undermine
0.5893924251	palsar data
0.5893847731	governs
0.5893651592	current practice
0.5893631680	derive
0.5893600114	wrong
0.5893570384	economical
0.5893508737	1s
0.5893391929	redefined
0.5893335279	the world wide web
0.5893319529	random samples
0.5893183673	035m
0.5893071639	distributed file system
0.5892993681	organizational boundaries
0.5892938443	multi functional
0.5892875247	extend
0.5892593056	field effect
0.5892548718	periphery
0.5892446034	mathbb
0.5892383993	damages
0.5892246673	automatically
0.5892215372	states
0.5892149321	ligands
0.5892112627	respect
0.5892065401	user identity
0.5891970276	overt
0.5891278685	downstream
0.5891010977	polylogarithmic
0.5891010977	cation
0.5890898233	matching method
0.5890621512	encountered
0.5890476274	learning objectives
0.5890258330	heshe
0.5890149746	dwell time
0.5890148858	multi document
0.5890046545	blocked
0.5889939467	vanishes
0.5889939467	favoring
0.5889728747	ieee 80221
0.5889417245	signals received
0.5889375729	concurrently
0.5889344310	rationally
0.5889193821	modeled
0.5889096337	decrypt
0.5888409164	foreseen
0.5888409164	decays
0.5888409164	hungry
0.5888409164	impair
0.5888409164	matured
0.5888409164	surpasses
0.5888332798	get
0.5888330536	diminished
0.5888263219	application performance
0.5888259329	whatever
0.5888224786	contending
0.5888224786	instantaneously
0.5887975151	test driven
0.5887722785	senders
0.5887261902	estimation of distribution algorithms
0.5887128930	j comput
0.5887092595	locations
0.5886991801	crucial
0.5886909164	granting
0.5886909164	1960s
0.5886909164	authored
0.5886725263	rewritten
0.5886725263	overarching
0.5886658044	dataset
0.5886188489	social dynamics
0.5885865922	non parametric
0.5885443442	widely
0.5885365685	enjoyed
0.5885365685	embody
0.5884911979	observed
0.5884824839	de vries
0.5884723224	non uniform
0.5884652386	modal analysis
0.5884446046	data movement
0.5884344310	exerted
0.5883818389	sensor observations
0.5883781300	user interactive
0.5883540412	real time embedded
0.5883522372	sketched
0.5883150659	related problems
0.5883088179	inhabitants
0.5882944432	next generation mobile
0.5882661427	inclination
0.5882149439	enrollment
0.5881869493	multimedia systems
0.5881654663	eigenvalues
0.5881526621	continuous space
0.5881185044	photons
0.5880929520	line graphs
0.5880908849	achieved
0.5880720307	deterministically
0.5880720307	precondition
0.5880627895	converted
0.5880137395	nodes
0.5880037877	planes
0.5879919614	identified
0.5879589564	development cycle
0.5879538633	nonlinearly
0.5879414103	enough
0.5879344310	5th
0.5879344310	resembling
0.5879288909	improves
0.5879234489	classification tree
0.5879170084	2005
0.5879067835	fuzzy measures
0.5878943978	compression schemes
0.5878557690	allowing
0.5877331862	changes
0.5877279399	exemplars
0.5877265964	every
0.5877206598	mechanisms
0.5877159540	result
0.5876853468	respected
0.5876853468	reacts
0.5876733214	enables
0.5876502685	achievements
0.5876412826	signal analysis
0.5876157000	web data
0.5876115101	manipulations
0.5876053095	redundancies
0.5876053095	encounters
0.5875569912	top down
0.5875540311	scientific software
0.5875365685	justifies
0.5875365685	unfeasible
0.5875111215	checkpoints
0.5874344310	12v
0.5874344310	favorite
0.5874329875	collaboratively
0.5874329875	securely
0.5874147867	distributed architecture
0.5874067989	hybrid particle swarm
0.5873983954	conformation
0.5873821363	insula
0.5873562504	power transmission
0.5873403255	multi agent approach
0.5873276477	down
0.5873123181	research efforts
0.5873096337	logarithmically
0.5872871529	dynamical models
0.5872760459	makes
0.5872677644	migrated
0.5872677644	parallels
0.5872521711	capabilities
0.5872321262	language processing nlp
0.5872184466	costs
0.5871932572	tolerated
0.5871642713	exploratory analysis
0.5871516929	corroborated
0.5871516929	underway
0.5871516929	unambiguously
0.5871516929	posing
0.5871493560	closed set
0.5871343458	increases
0.5871296846	compare
0.5871003731	european journal of operational research
0.5870274470	area and power consumption
0.5869814300	prone
0.5869781284	prefixes
0.5869647399	too
0.5869315441	dynamically
0.5869212754	boundary control
0.5868658640	realizations
0.5868532553	performance index
0.5868514397	enumerated
0.5868391929	alters
0.5868254376	fixes
0.5868180556	100
0.5868149285	algorithmic solutions
0.5867886330	query performance
0.5867705299	softwares
0.5867551268	regions
0.5867450066	eigenfunctions
0.5867380248	opening and closing
0.5867278733	designed
0.5867246395	performance evaluations
0.5867191015	business environments
0.5866853468	pleasing
0.5866810833	matching scheme
0.5866526868	speeding up
0.5866516929	anymore
0.5866516929	ments
0.5866497685	einem
0.5866287997	linear filtering
0.5866274276	intelligent traffic
0.5866053095	homogenous
0.5865953047	behind
0.5865858573	conceptual level
0.5865776280	mirnas
0.5865629966	circuit boards
0.5865432690	heuristic approach
0.5865386198	correct
0.5865245910	ensemble method
0.5865195400	presented
0.5864779414	straightforwardly
0.5864779414	permanently
0.5864779414	tunes
0.5864779414	specificities
0.5864767453	define
0.5864624241	infrastructure based
0.5864539801	needed
0.5864382914	syntactic analysis
0.5864377867	presents
0.5864190458	implanted
0.5864183368	2n 1
0.5864143344	zone based
0.5863720090	optimal control theory
0.5863691432	generated
0.5863679897	supports
0.5863571176	involved
0.5863346445	load conditions
0.5863254614	msec
0.5863159376	90
0.5863134535	routine
0.5862828030	trust models
0.5862746835	beams
0.5862723790	request arq
0.5862657682	contributes
0.5862515662	random instances
0.5862329860	packet access
0.5862256032	projectors
0.5862093721	tracking systems
0.5861909607	vary widely
0.5861675966	invocations
0.5861675966	newest
0.5861463440	inter carrier
0.5861153207	prove
0.5861079046	execution speed
0.5860994760	fingered
0.5860791542	model uncertainty
0.5860392459	dynamic clustering
0.5860098782	instances
0.5860073319	rectify
0.5860073319	overestimate
0.5860073319	deserves
0.5860073319	entirety
0.5860073319	neglects
0.5860003536	within
0.5859845025	stimulus
0.5859789734	large population
0.5859785136	graphs with maximum degree
0.5859693895	actors
0.5859664201	growth factor
0.5859557079	physical simulation
0.5859330709	fully functional
0.5859157993	numerical experiments
0.5858866101	uniform distribution
0.5858391929	comparably
0.5858391929	conveys
0.5858391929	elegantly
0.5858353840	technical issues
0.5858215241	implemented
0.5858188599	carried
0.5857916629	data mining algorithm
0.5857814447	local search method
0.5857740728	parents
0.5857219716	advertisers
0.5857030537	ambiguous
0.5857000525	hoped
0.5857000525	judiciously
0.5856991974	deadlines
0.5856950052	fabrication process
0.5856790910	topological structure
0.5856286449	output error
0.5856248389	local search algorithm
0.5856144482	really
0.5856052730	discrete time
0.5855761410	considered
0.5855700843	linearized
0.5855591329	feedback mechanism
0.5855335265	7
0.5855249966	sup
0.5854952819	relatively
0.5854344310	unnatural
0.5854344310	inefficiencies
0.5854135977	promised
0.5854096641	linear constraints
0.5854039315	quality of service qos requirements
0.5853856094	case tool
0.5853709025	signal representation
0.5853183447	analysts
0.5853000934	endeavor
0.5852918635	low signal to noise ratio snr
0.5852911979	created
0.5852498139	network intrusion
0.5852097006	time series
0.5852074250	innovation process
0.5851787874	modulating
0.5851725263	encapsulates
0.5851670804	substances
0.5851178833	posterior distribution
0.5851168034	indicated
0.5851073017	simulation modelling
0.5850896239	dialect
0.5850786427	floors
0.5850748184	user mimo
0.5850568294	previous schemes
0.5850534427	data race
0.5850412106	merging algorithm
0.5850246706	lumped
0.5850213148	context oriented
0.5849751319	from
0.5849751319	with
0.5849472321	behavioral control
0.5849465241	provided
0.5849401873	process parameters
0.5849184554	areas
0.5849014053	data points
0.5848888569	cantilever
0.5848871207	laptops
0.5848842976	dierent
0.5848577959	global constraints
0.5848386428	stiff
0.5848357302	single point of failure
0.5848341038	theoretic perspective
0.5848212475	unlike previous
0.5848007428	signal to interference plus noise ratio
0.5847989895	user activities
0.5847734617	put
0.5847734366	magnetic resonance imaging fmri
0.5847143488	represented
0.5846852031	contributors
0.5846497685	iterate
0.5846497685	2m
0.5846485595	homogeneous regions
0.5846024493	prototypes
0.5845987812	performance analyses
0.5845678810	traffic prediction
0.5845642845	local texture
0.5845568870	underlying
0.5845020354	generalise
0.5844849735	privileged
0.5844733368	disabled people
0.5844619572	1970s
0.5844619572	imported
0.5844599838	information criterion
0.5844483012	data extraction
0.5844328073	situations
0.5844015385	jacobi bellman
0.5843838145	regression methods
0.5843824304	additional constraints
0.5843764318	easily
0.5843705977	confirming
0.5843697220	ica algorithm
0.5843152714	transparency
0.5843093409	variables
0.5842842474	channel characteristics
0.5842777458	privileges
0.5842406967	categories and subject descriptors
0.5842352308	happen
0.5842179906	indications
0.5841893498	tasks
0.5841732000	sensor noise
0.5841513240	contradictory
0.5841221701	registration algorithm
0.5841101773	genotyping
0.5841005535	contour based
0.5840980039	pessimistic
0.5840860960	time variant
0.5840811105	experimental observations
0.5840249908	suppliers
0.5840235069	arbitrarily large
0.5840010318	seismic data
0.5839833235	snr values
0.5839779414	accomplishing
0.5839618187	improved performance
0.5839553641	outdated
0.5839553641	mimicking
0.5839421512	coarse to fine
0.5839234548	finite size
0.5839082680	normalized least mean
0.5839013221	defined
0.5838872588	greatly increase
0.5838693498	thalamus
0.5838625750	according
0.5838506121	anything
0.5838488613	efficient scheduling
0.5838418932	learning rules
0.5837824651	divisions
0.5837542547	perceptron neural network
0.5837454540	reconfigured
0.5837000761	self similar
0.5836985602	lays
0.5836959130	past experiences
0.5836852031	fragmented
0.5836767145	values
0.5836316109	returns to scale
0.5836315690	absolute values
0.5836153207	discuss
0.5836061459	specify
0.5835928385	30
0.5835292599	unforeseen
0.5835241278	presumably
0.5835191578	supplying
0.5835081571	detection performance
0.5835020354	preferentially
0.5835020354	isolates
0.5834961139	shop scheduling problem
0.5834738566	noisy conditions
0.5834457022	side
0.5833771681	clustering scheme
0.5833510048	low power applications
0.5833353688	accommodated
0.5833008592	placement algorithm
0.5832616225	level dependent
0.5832498336	mean square
0.5832307160	reverberation
0.5832005743	linear functions
0.5831891953	performance issues
0.5831600714	moderately
0.5831546545	releases
0.5831428331	mining algorithms
0.5831157545	accurate detection
0.5831121632	smaller
0.5831009885	digital logic
0.5830546545	putative
0.5830295084	indicates
0.5829997014	statistical techniques
0.5829893567	multiple input multiple output mimo channel
0.5829807334	empirical data
0.5829764445	global scale
0.5829147681	heterogeneous devices
0.5828820935	online content
0.5828693245	machine translation systems
0.5828188631	based cryptography
0.5828049475	major limitation
0.5827932732	parallel application
0.5827824651	overlaid
0.5827445740	a game theoretic approach
0.5827436544	direct communication
0.5827253936	ultimate goal
0.5827220256	parameters
0.5826608128	recent studies
0.5826591148	shape modeling
0.5826519982	approximation space
0.5825712895	rankings
0.5825632551	extreme value
0.5825552904	increase
0.5825485463	votes
0.5825059912	generating function mgf
0.5824747528	revisions
0.5824667975	felt
0.5824619615	research center
0.5824453133	dependences
0.5824297230	envision
0.5824065885	ignored
0.5824048886	local shape
0.5823866974	nonlinearities
0.5823819864	operands
0.5823432569	interval type 2
0.5822617577	experimental comparisons
0.5822480448	installing
0.5822036242	populations
0.5821973491	wirelength
0.5821775228	biological knowledge
0.5821551720	development platform
0.5821315009	advantages
0.5821304446	security service
0.5821243434	wireless medium
0.5821174200	recast
0.5821174200	appreciated
0.5821174200	sharply
0.5821075885	over
0.5820693142	want
0.5820574648	network processing
0.5820430756	nm cmos process
0.5820350383	different
0.5820164344	resulting
0.5819717416	feeding
0.5819513559	photos
0.5819367959	wireless applications
0.5819365539	control mechanism
0.5819335265	2006
0.5818871207	incorrectly
0.5818851858	along
0.5818474378	500
0.5818287837	discovery service
0.5818036003	coined
0.5818036003	suspected
0.5818036003	differentiates
0.5817986621	9
0.5817943067	same
0.5817452966	design paradigm
0.5817072275	distributed coordination
0.5816755463	qubits
0.5816664851	90 nm cmos
0.5816392646	converge
0.5816056889	20
0.5815908960	therapies
0.5815446496	constructed
0.5815427857	application domains
0.5815295370	inter user
0.5815020354	questionable
0.5814808931	program development
0.5814750193	existence results
0.5814578698	distributed database
0.5814323071	samples
0.5814263570	detail
0.5813834429	cdma based
0.5812824651	criterions
0.5812824651	uploaded
0.5812787537	data representation
0.5812575626	relayed
0.5812160491	global exponential
0.5812119018	based authentication
0.5811879125	2007
0.5811857314	time delay systems
0.5811599997	numerical method
0.5811353777	trec 2009
0.5810746067	code rates
0.5810377814	secure protocol
0.5810292599	purchases
0.5809938825	timings
0.5809438920	proved
0.5809393883	recognition errors
0.5809328031	monitoring applications
0.5809313372	offerings
0.5808871207	compromises
0.5808606434	higher precision
0.5808260731	occur frequently
0.5807862859	shown
0.5807278322	present
0.5807155292	stochastic search
0.5807135996	off chip
0.5807126458	aperture radar
0.5806884961	image texture
0.5806684721	menu
0.5806647114	fills
0.5805980039	externally
0.5805874206	path following
0.5805787874	unsafe
0.5805781694	dissimilarities
0.5805702470	acoustic sensor
0.5804806889	2009
0.5804604558	employees
0.5804529883	time varying delay
0.5804512545	neural correlates
0.5804231140	prior distribution
0.5804048967	unrestricted
0.5803675259	voltage level
0.5803318759	laid
0.5803088124	customers
0.5802912085	tend
0.5802897114	invented
0.5802824651	miniaturization
0.5802707115	watermarked image
0.5802295524	extremes
0.5802295524	copied
0.5801911758	computational costs
0.5801718877	zero crossing
0.5801286258	core cpus
0.5801174200	overviews
0.5800933472	analysis methods
0.5800788299	larger
0.5800469108	linear model
0.5800386669	division multiple access mc
0.5800312756	range based
0.5800023900	data streaming
0.5800016569	interesting insights
0.5799975710	8
0.5799399302	above
0.5799346166	modeling method
0.5799186885	control method
0.5798969604	layered structure
0.5798615101	breaks
0.5798534549	perfectly
0.5798521336	representable
0.5798497432	artefacts
0.5798445830	parts
0.5798444829	initial position
0.5798434932	accelerometers
0.5797983372	manipulates
0.5797913331	suppresses
0.5797913331	formalizes
0.5797910909	redesigned
0.5797897778	experimental data
0.5797867450	cortices
0.5797676125	graphical representation
0.5797482532	optimal path
0.5797283085	free and open source
0.5797072842	obtained
0.5796988829	65 nm cmos
0.5796924822	quality factors
0.5796648439	new york
0.5796647114	undetected
0.5796488712	modeling and optimization
0.5796405252	payoff
0.5796174200	locates
0.5796174200	ensuing
0.5796174200	underline
0.5796154230	chances
0.5796147577	compartments
0.5795830984	including
0.5795696892	electrodes
0.5795422365	setups
0.5795248126	parameterizations
0.5795220128	programmable gate
0.5795179803	widely applicable
0.5794942369	tiers
0.5794770516	mostly
0.5794736865	hard problems
0.5794320224	speech features
0.5794139649	channel parameters
0.5794032920	speedups
0.5794032920	comparatively
0.5793992293	distinctions
0.5793892866	management strategies
0.5793568797	face recognition method
0.5793382397	technical aspects
0.5793139849	linear stability
0.5792941999	p adic
0.5792685753	traversed
0.5792433545	invariant feature
0.5792241534	ehealth
0.5791768265	jumps
0.5791735549	alone
0.5791173994	self configuring
0.5791057240	accurately estimate
0.5791018242	lowest
0.5790833823	graphics processing
0.5790701617	noise level
0.5790462528	ports
0.5790239534	data mining and machine learning
0.5789912722	heterogeneous traffic
0.5789770783	thresholds
0.5789670075	distributed processing
0.5789473204	effectively
0.5789439131	processing speed
0.5788920647	reported
0.5788713627	takagi sugeno t s
0.5788642320	direction of arrival
0.5788047852	take
0.5788003898	vector control
0.5787544394	kinematic analysis
0.5787528855	proximity based
0.5787331056	graph search
0.5787063251	linear programming milp
0.5786838880	source node
0.5786545770	spectrum resources
0.5786303451	other
0.5785980039	baselines
0.5785980039	imaged
0.5785484042	mobile location
0.5785471464	extensive experiments
0.5785303677	model driven software
0.5785021615	correction method
0.5784583218	95
0.5784155538	diagnosed
0.5783955595	destroyed
0.5783789971	lengthy
0.5783751012	semantic web based
0.5783603786	followed
0.5782451823	event model
0.5782150039	arrived
0.5781884196	applied
0.5781822679	featured
0.5780980039	edited
0.5780841132	automatic processing
0.5780703302	image processing applications
0.5780374186	firms
0.5780320590	corrupt
0.5780248126	placements
0.5780217980	duplicates
0.5779947560	photograph
0.5779578386	high pressure
0.5779504257	pushed
0.5779338695	cluster structure
0.5779338536	likelihood based
0.5779111551	cyclic delay
0.5779102770	time delay estimation
0.5779009640	final classification
0.5778998575	supervised learning algorithm
0.5778916640	proposed cross layer
0.5778832804	upgrades
0.5778790603	division of labor
0.5778608923	head model
0.5777913331	affords
0.5777769001	overshoot
0.5777688966	adaptive neuro fuzzy inference system
0.5777386588	denial of service
0.5777367988	entail
0.5777367988	disrupt
0.5777326762	conceptual framework
0.5776886004	onto
0.5776763532	statistical framework
0.5776627093	efficiently
0.5776443784	space robot
0.5776281696	linear dynamical
0.5776204558	erroneous
0.5776174532	linear minimum mean square
0.5776174200	marginally
0.5776174200	interprets
0.5776084120	graph properties
0.5776062438	p2p content
0.5776001436	control schemes
0.5775984753	mathcal
0.5775873305	aggressively
0.5775258487	ap algorithm
0.5775236197	np hard problem
0.5775108724	unequal error
0.5774984235	ad hoc on demand
0.5774910048	medium size
0.5774657920	feature extraction and classification
0.5774471391	users preference
0.5773997109	mutants
0.5773711651	3d
0.5773625144	result holds
0.5773444601	unified device architecture
0.5773130437	subchannels
0.5773129687	payoffs
0.5773057974	1e
0.5773030677	electrons
0.5772923543	excessively
0.5772848126	decodes
0.5772724673	access control systems
0.5772657503	random oracles
0.5772522811	array based
0.5772150039	embodies
0.5771802220	eases
0.5771170320	sent
0.5770654658	final step
0.5770551730	sequence analysis
0.5769980432	assignments
0.5769605895	advanced technology
0.5769504257	favors
0.5769323856	co occurrences
0.5769130423	congruent
0.5768796112	comparative studies
0.5768619085	geometrical properties
0.5768048674	core based
0.5767721124	best
0.5767413495	public domain
0.5767388566	internet security
0.5767206862	strategically
0.5767206497	branch and bound algorithm
0.5766987257	2x
0.5766804345	cables
0.5766783528	multi hop network
0.5766708129	structured peer to peer
0.5766037548	collaborative development
0.5765982581	regression based
0.5765821774	square error rmse
0.5765796668	deformations
0.5765762236	major contributions
0.5765737430	co expression
0.5765476639	calculation method
0.5765041527	appearances
0.5764792333	interaction technique
0.5764712931	throughput delay
0.5764547253	fusion approach
0.5764267443	sampling points
0.5764225752	drops
0.5763921388	simulation software
0.5763647105	physical processes
0.5763490175	graph patterns
0.5763364089	temporal domain
0.5762525782	media objects
0.5762513213	post processing step
0.5762476420	stopped
0.5762037891	inaccurate
0.5761697402	already
0.5761565917	logged
0.5761529576	circuitry
0.5761216804	relies
0.5761174239	blind channel
0.5760649725	clusterings
0.5760578421	control mechanisms
0.5760479879	information propagation
0.5760390084	high cost
0.5760096089	optimal allocation
0.5760068797	previously proposed
0.5759867622	output stage
0.5759677518	approved
0.5759570772	data records
0.5759292896	attracts
0.5759203631	major challenges
0.5758829649	design requirements
0.5758733058	beats
0.5758560052	input patterns
0.5758485796	disk based
0.5758466510	look up tables
0.5757962783	forward df
0.5757818576	lowers
0.5757692104	data model
0.5757659826	average bit error rate
0.5757596771	additive gaussian
0.5757255603	numerical calculation
0.5757047090	voiced
0.5756987257	conservatism
0.5756788175	extremely high
0.5756332308	announced
0.5756043500	retrieval model
0.5755802008	pre determined
0.5755680417	input data
0.5755112910	regimes
0.5755007182	undergone
0.5755007182	stabilizes
0.5755007182	necessitate
0.5754933851	intercept
0.5754348044	closer
0.5754234524	wide field
0.5753733058	judgements
0.5753268565	primary task
0.5753227716	like
0.5753064906	main goal
0.5752826061	mirna
0.5752658287	granularities
0.5752633118	mobile health
0.5751690511	numerical tests
0.5751376230	groupings
0.5751376230	lowered
0.5751376230	undergoes
0.5751359326	multiple access ofdma
0.5751004581	motion features
0.5750887387	low level image
0.5750751734	causes
0.5750351911	user specific
0.5750335749	strongly affected
0.5749896823	qos quality of service
0.5749016282	highest level
0.5748720366	rate reduction
0.5748716750	engineering approach
0.5748358468	activity patterns
0.5748113132	personalized information
0.5747815256	paper investigates
0.5747706905	group differences
0.5747090515	lend
0.5746735210	passively
0.5746300596	enterprise information system
0.5745667465	non regenerative
0.5745437891	counts
0.5745378282	becoming
0.5745007182	synthesizes
0.5745007182	deliberately
0.5744183376	artificial neural network model
0.5744161502	binary representation
0.5743837605	reflexive
0.5743762326	management tools
0.5743683922	pays
0.5743087041	compared
0.5742716673	general setting
0.5742498945	discarded
0.5742254888	expression datasets
0.5742020621	testing techniques
0.5741854276	packaged
0.5741833256	utterances
0.5741568002	location allocation
0.5741467311	learning classifier
0.5741014068	electronic patient
0.5740937751	computation complexity
0.5740849032	learning framework
0.5740728275	storage overhead
0.5740702551	monitoring framework
0.5740313286	real world data
0.5740049114	1n
0.5739653945	seem
0.5739588660	feature extraction algorithm
0.5739527733	ity
0.5739447344	coders
0.5739330506	input sequence
0.5739222805	bag of features
0.5739192396	hindering
0.5738805890	striking
0.5737802114	splits
0.5737512898	social structure
0.5737260096	distortion model
0.5737194289	localization method
0.5737090515	tremendously
0.5737090515	disappear
0.5737090515	markedly
0.5736668902	disseminated
0.5736645512	representation theory
0.5736043068	tries
0.5735867954	independent and identically distributed
0.5735819988	relevant information
0.5735814221	98
0.5735792316	network coordinate
0.5735769549	assays
0.5735437891	checks
0.5735426738	briefly discussed
0.5735316607	feature size
0.5735137188	markov model based
0.5735134256	grounds
0.5734982116	performance limits
0.5734573790	3rd generation
0.5734487563	altered
0.5734369683	real environment
0.5733736699	database applications
0.5733401877	encompassing
0.5733343145	transported
0.5733171033	galerkin methods
0.5733161473	proportionally
0.5732876290	mixture of experts
0.5732809336	alternative methods
0.5732621950	document analysis
0.5732424678	dynamical behavior
0.5732369331	improving performance
0.5731972695	supplementary information
0.5731314945	updates
0.5730355716	face to face
0.5730256393	obsolete
0.5730142477	significant performance improvement
0.5729606787	current state
0.5729520943	understandings
0.5728501091	back pressure
0.5728371444	uml model
0.5727968781	constituents
0.5727897580	machine translation system
0.5727717425	work
0.5727584342	table top
0.5727581508	design considerations
0.5727399553	studied extensively
0.5727379543	arguments
0.5727052444	degradations
0.5726992947	c band
0.5726885239	feature transform sift
0.5726684162	previous approaches
0.5726415862	frequency allocation
0.5726236472	delay analysis
0.5726222389	measurement systems
0.5725848523	specimens
0.5725551681	extra hardware
0.5725508357	pre computed
0.5725482773	subjectively
0.5725338364	color filter
0.5725281780	regulates
0.5725233029	less
0.5725094349	algorithm converges
0.5724813633	subgroups
0.5724772396	non dominated solutions
0.5724695321	arose
0.5724129309	early phase
0.5724020619	synchronously
0.5724011066	iterates
0.5723969650	serious game
0.5723934145	simulation modeling
0.5723727239	key steps
0.5723396175	aligns
0.5723089363	processing capabilities
0.5722847858	knowledge driven
0.5722718854	without
0.5722649580	image edge
0.5722444890	recent findings
0.5722279133	power filter
0.5721955673	real time
0.5721927733	terminates
0.5721767665	fast changing
0.5721697352	automata ca
0.5721686726	access mc cdma
0.5721462986	real world scenarios
0.5721288728	exceeded
0.5721150260	very
0.5720914847	certain
0.5720911316	time lapse
0.5720901881	memory architectures
0.5720256393	intersect
0.5720195334	more
0.5720185391	secure access
0.5719941191	preliminary tests
0.5719897513	detection techniques
0.5719888191	again
0.5719851552	photon emission
0.5719794532	worthwhile
0.5719708394	ours
0.5719520943	settle
0.5719505518	curve cryptography
0.5719443566	widespread adoption
0.5719360589	error metric
0.5718952311	based channel estimation
0.5718897997	unicast and multicast
0.5718851919	imageclef 2009
0.5718782863	manageable
0.5718777000	network structures
0.5718562083	inspected
0.5718426058	topology design
0.5718301314	shortened
0.5718192738	tendencies
0.5717934072	education and training
0.5717912444	control problem
0.5717542542	try
0.5716853173	model parameters
0.5716829399	infrequent
0.5716549945	routing layer
0.5716351588	moves
0.5716239913	correction algorithm
0.5715933322	dependent variable
0.5715740316	accommodates
0.5715702253	java applications
0.5714936963	machine scheduling
0.5714866253	deeply
0.5714847053	som based
0.5714622061	contend
0.5714622061	deploys
0.5714257438	size distributions
0.5714099612	unnecessarily
0.5714052434	labeled training
0.5714020619	disclosed
0.5713791527	replicates
0.5713689520	6
0.5713598289	grammar rules
0.5713539526	functional groups
0.5712700003	q ary
0.5712651709	initial states
0.5712516919	t norm
0.5712515190	logn
0.5712334715	high computational complexity
0.5712295466	real world dataset
0.5712054380	robust design
0.5712037891	interpretations
0.5711641371	indicate
0.5711378122	inappropriate
0.5711113241	meta information
0.5710848523	discoveries
0.5710780012	online algorithms
0.5710532175	swarm algorithm
0.5710491245	fundamental principles
0.5710340010	uneven
0.5710318059	human visual system
0.5710222383	segmentation quality
0.5710201414	structured information
0.5710176646	transmission protocol
0.5709746066	disagreement
0.5709585569	specifics
0.5709579322	group behavior
0.5708794532	gracefully
0.5708737947	open environments
0.5708656983	stays
0.5708530773	come
0.5708262824	anyone
0.5708084636	machine learning repository
0.5708004938	80211
0.5707921620	response function
0.5707875037	constrains
0.5707483960	an empirical study
0.5707242572	theoretical guarantees
0.5706736262	natural resources
0.5706735229	subtasks
0.5706699660	distributed file
0.5706615807	r d
0.5706479395	400
0.5706196474	differ significantly
0.5706171370	business management
0.5705767099	online communication
0.5705649556	help
0.5705502110	10 fold cross validation
0.5705415012	interferers
0.5704993162	unique opportunity
0.5704866253	adaptations
0.5704858942	sentences
0.5704439241	opponents
0.5704251275	continual
0.5704164546	constraint networks
0.5703986067	home based
0.5703396175	assures
0.5703015641	2008
0.5702845341	social network based
0.5702549205	loses
0.5702520774	neither
0.5702362910	richer
0.5702129872	compartment
0.5701913415	non volatile memory
0.5701861150	hierarchical tree
0.5701808220	orthogonal space time
0.5701733463	feature representations
0.5701668902	happening
0.5701615872	sold
0.5701600266	evidence suggests
0.5701096975	clef 2009
0.5700992356	bins
0.5700827924	12
0.5700766279	modulates
0.5700766279	coarser
0.5700666800	web based application
0.5700535380	nonlinear least squares
0.5699995919	exact solution
0.5699740987	his
0.5699215872	visualizes
0.5699129968	2
0.5699036633	statistical distribution
0.5698763479	recognition systems
0.5698478173	norm based
0.5698214911	collaborators
0.5697955472	frequency responses
0.5697844835	traffic simulation
0.5697815138	optimal decision
0.5697482607	single node
0.5697247449	happened
0.5696710604	organs
0.5696699231	instantiations
0.5696668902	decouples
0.5696668902	gathers
0.5696668902	deteriorates
0.5696232999	cross traffic
0.5696121685	leave one out
0.5696079692	verification technique
0.5696004644	regression problem
0.5695835785	near optimum
0.5695743874	zero knowledge
0.5695691332	cpu and gpu
0.5695675044	phrase based statistical
0.5695641638	optimal policy
0.5695435016	motion based
0.5695349426	ai techniques
0.5694900625	occupation
0.5694585569	peculiarities
0.5694267672	deployments
0.5694122675	gives
0.5693884978	stating
0.5693808479	position modulation
0.5693723130	heterogeneous multi
0.5693459599	analytical approach
0.5693052942	writes
0.5693010818	programmability
0.5692914229	manifested
0.5692673033	associated
0.5692496889	spontaneously
0.5692419117	male and female
0.5692194532	delicate
0.5691845043	rewards
0.5691836239	complete bipartite
0.5691814783	formally defined
0.5691194532	intertwined
0.5691067774	maximization em
0.5690953476	co clustering
0.5690702818	con
0.5690072248	knowledge based approach
0.5690017941	incrementally
0.5689914438	replaces
0.5689893812	problem specific
0.5689760818	registering
0.5689730780	functionals
0.5689659730	meta models
0.5689607971	core area
0.5689470936	similarity analysis
0.5689266045	age and gender
0.5689129968	show
0.5688762508	linear programming approach
0.5688691422	agile software
0.5688528711	augments
0.5688462206	tool set
0.5688385434	verification techniques
0.5688250259	gradient algorithm
0.5687974044	campaigns
0.5687965033	drag and drop
0.5687435415	interaction effects
0.5687153051	fundamental questions
0.5686847087	supervised learning method
0.5686742996	reconstructs
0.5686343097	strategic decision
0.5686153617	object databases
0.5685970996	masks
0.5685736526	division multiple access ofdma
0.5685589999	x ray diffraction
0.5685395091	an ontology based
0.5685245714	text data
0.5685196263	output mimo
0.5685116081	manifest
0.5684949205	picked
0.5684870174	monotonically
0.5684870174	laborious
0.5684870174	exert
0.5684642067	monitors
0.5684598135	varying channels
0.5684460446	value chain
0.5684406956	exhaustively
0.5684406956	decisive
0.5684152211	uncovered
0.5684090579	type i error
0.5683885831	ex post
0.5683752424	becomes
0.5683428711	advocated
0.5683428711	clarifies
0.5683279267	multiplications
0.5683084460	inhibit
0.5682956008	10
0.5682846858	objective optimisation
0.5682554307	object surface
0.5682521900	functional languages
0.5682506343	cause
0.5682333369	let g
0.5681851377	make
0.5681611503	highly optimized
0.5681462335	depends
0.5681378331	those
0.5680928711	inherits
0.5680784979	inaccessible
0.5680551645	traded
0.5680546034	drastic
0.5680546034	misleading
0.5680546034	mere
0.5680080468	computational overhead
0.5679983129	tutoring systems
0.5679777096	theoretical result
0.5679680059	contain
0.5679491542	scheduling framework
0.5679229148	relaxes
0.5679142996	complicate
0.5679142996	organizes
0.5678627367	seems
0.5678578792	software application
0.5678485893	order selection
0.5678445315	deficits
0.5678338778	significantly improved
0.5678236889	vowels
0.5678163442	focuses
0.5678151895	uncoded
0.5677489793	damaged
0.5677417665	chain management
0.5677082803	recovery scheme
0.5676986699	x ray image
0.5676789374	time dependent
0.5676604276	inception
0.5676604276	fuses
0.5676023628	fluxes
0.5676002560	national level
0.5675746964	previous research
0.5675519771	modulation and coding scheme
0.5675417293	to
0.5675326465	lifetimes
0.5675259966	find
0.5675147447	generations
0.5674980361	mesh nodes
0.5674395223	receiver design
0.5674379989	posted
0.5674246232	co citation
0.5674152669	complex environments
0.5674064931	workflow based
0.5674029394	labeled and unlabeled
0.5673796532	responsibilities
0.5673768029	branch and bound
0.5673394431	row and column
0.5672859337	hinders
0.5672834965	particle swarm optimization based
0.5672807377	conformations
0.5672538895	major drawbacks
0.5672162148	internet of things
0.5671946243	missions
0.5671906507	numerical techniques
0.5671832919	computational advantages
0.5671681212	call blocking probability
0.5671534355	excellent performance
0.5670864362	weighting function
0.5670831950	query specific
0.5670546034	intentionally
0.5670171966	simulation analysis
0.5669795712	i introduction
0.5669684570	strains
0.5669535446	existing schemes
0.5669500054	image dataset
0.5669229148	arisen
0.5669229148	automates
0.5668855409	weighted completion time
0.5668836726	signing
0.5668809191	encounter
0.5668681524	article discusses
0.5668151895	milliseconds
0.5668085421	allow
0.5667212704	solution procedure
0.5667048337	briefly discuss
0.5666915511	differential algebraic
0.5666829399	attacked
0.5666648614	hand motion
0.5666592113	spreads
0.5666508159	service classes
0.5666507925	76
0.5666480415	tree complex wavelet transform
0.5666445714	specialised
0.5666418263	up
0.5666416309	research framework
0.5665952257	functional analysis
0.5665824663	random networks
0.5665795557	dissimilar
0.5665703882	autonomous mobile
0.5665696092	fpga design
0.5665546034	unknowns
0.5665517270	protocol overhead
0.5665052454	channel variation
0.5665046532	forwards
0.5664915264	recent works
0.5664751207	controversial
0.5664718990	lower latency
0.5664575446	hybrid automatic repeat request
0.5664437615	source image
0.5664379467	ranking scheme
0.5664155771	believe
0.5663432991	anfis model
0.5663428711	envisaged
0.5663403422	directly connected
0.5663084460	favored
0.5663021266	leads
0.5662738685	university of california
0.5662657475	geometric mean
0.5662554874	sub pixel
0.5662498346	buttons
0.5662256893	network operation
0.5662245065	measurement methods
0.5662239760	de bruijn
0.5661866081	intricate
0.5661727093	web 20
0.5661536841	fulfills
0.5661536841	lends
0.5661536841	immense
0.5661536841	mitigates
0.5661184496	random packet
0.5661003159	body sensor
0.5660976909	claims
0.5660671368	matrix vector
0.5660517827	scattered data
0.5660395851	proportions
0.5659760818	probabilistically
0.5659444443	tends
0.5659252089	explanatory power
0.5659217407	self adapting
0.5659095326	imaging conditions
0.5658934650	based classifier
0.5658826055	data repository
0.5658501736	pose tracking
0.5658495340	the cell broadband engine
0.5658382332	abstraction levels
0.5657669727	undergoing
0.5657427330	maximum diversity
0.5656933186	attracting
0.5656916369	into
0.5656742996	recruited
0.5656367128	widths
0.5655256528	feelings
0.5655234715	trust and reputation
0.5654831748	requesting
0.5654781084	second order elliptic
0.5654596471	semantic context
0.5654406956	trades
0.5654279267	unused
0.5654151322	corresponding
0.5653827518	separation of concerns
0.5653780050	bugs
0.5653743873	form games
0.5653692862	left to right
0.5653613407	noise ratio psnr
0.5653586513	genetic regulatory
0.5653574663	stochastic differential
0.5653558421	f measure
0.5653346566	sind
0.5653123930	exactly
0.5652921716	hardware devices
0.5652892120	wasted
0.5652825886	industry standard
0.5652648446	ns 2 simulator
0.5652635710	underlie
0.5652591054	single output
0.5652097447	scored
0.5651999037	regularities
0.5651879791	often
0.5651870322	asynchronously
0.5651870322	undertaking
0.5651754825	duplicated
0.5651505414	overfitting
0.5651479912	singular systems
0.5650986807	unlike previous approaches
0.5650592113	victims
0.5650532815	manual effort
0.5650435173	temperature and humidity
0.5650390421	well
0.5650240476	spikes
0.5650122558	feature extraction technique
0.5650119451	carrier sense multiple
0.5650013621	light detection
0.5649684570	margins
0.5649667268	low probability
0.5649341413	analytical study
0.5649279267	manufactured
0.5649270145	admitted
0.5649256528	ingredients
0.5649191233	import
0.5649099631	color channels
0.5648908760	computation cost
0.5648790902	theory of mind
0.5648018917	adversaries
0.5647974044	unlimited
0.5647974044	traced
0.5647933746	sich
0.5647456912	advocates
0.5647433058	generation algorithm
0.5647379865	crowded
0.5646417560	data mining methods
0.5646133146	charges
0.5646090666	interference power
0.5645795557	witnessed
0.5645687432	currents
0.5645333000	theory ser b
0.5645256528	logically
0.5644867079	covariates
0.5644670274	recommender system
0.5644642067	orientations
0.5644636133	joined
0.5644608064	durations
0.5644564329	auxiliary information
0.5644421818	general solution
0.5644279267	unavoidable
0.5644219453	facilities
0.5644203470	bottom up
0.5643796532	initialized
0.5643722926	switching networks
0.5643568680	placed
0.5643504040	declared
0.5643489793	abstracted
0.5643454429	math anal
0.5643386968	atoms
0.5643253236	capacities
0.5643153289	eigenvectors
0.5643084540	outlining
0.5643014531	gateway protocol
0.5642456912	organised
0.5642456912	overly
0.5642274036	web based systems
0.5642232739	c arm
0.5641762044	depicts
0.5641762044	1980s
0.5641762044	invaluable
0.5641479069	algorithm named
0.5641188581	locked loop pll
0.5641150141	indoor and outdoor environments
0.5641139440	clarified
0.5641139440	compactly
0.5641035178	chain based
0.5640747293	practical aspects
0.5640684570	retained
0.5640669898	stressed
0.5640611804	data item
0.5640590125	reliability based
0.5640553557	shop scheduling
0.5640474044	comfortable
0.5640441698	interviewed
0.5640259110	torques
0.5640139440	preprocessed
0.5640139440	habits
0.5639781565	o n
0.5639747653	convergence properties
0.5638974044	outperforming
0.5638594003	exposes
0.5638321936	research works
0.5638112908	based decision support
0.5638111104	play important roles
0.5637974044	opened
0.5637794679	delay bounds
0.5637702650	linear relationship
0.5637649612	unfamiliar
0.5637367128	embeds
0.5636367128	dropped
0.5635752779	machine learning approach
0.5635528649	semester
0.5635403332	significant improvements
0.5635367128	mrna
0.5635337744	not
0.5635216770	transmission channel
0.5635139440	audiences
0.5635132946	far field
0.5635064125	unknown environment
0.5635011641	containing
0.5634984991	relevant features
0.5634636133	positioned
0.5634484450	invalid
0.5634447643	inactive
0.5634211617	fruitful
0.5634198094	peer to peer systems
0.5633694289	multimedia information
0.5633649612	4g
0.5633583501	queried
0.5633530639	spans
0.5633435467	specified
0.5633399457	codeword
0.5633336033	provisions
0.5633238852	granted
0.5633218881	existing approaches
0.5633090373	real world networks
0.5633035336	geometric approach
0.5632690031	real data
0.5632635710	occupy
0.5632635710	realised
0.5632448809	absolutely
0.5631686837	thank
0.5630999357	histories
0.5630953978	data placement
0.5630945788	subproblem
0.5630788036	web 20 technologies
0.5630757978	training datasets
0.5630740731	great attention
0.5630620742	than
0.5630347820	ending
0.5630139440	detectable
0.5630016807	data mining method
0.5629882189	kernel method
0.5629867128	bigger
0.5629867128	distributes
0.5629349814	computer supported collaborative
0.5629320113	assesses
0.5629003231	stably
0.5629003231	throughputs
0.5628974044	approached
0.5628974044	quantifies
0.5628972917	major issues
0.5628888531	staff
0.5628642053	computational speed
0.5628476539	network connections
0.5628377577	partitioning algorithm
0.5628279211	einer
0.5627974044	recovers
0.5627367128	equals
0.5627367128	cumbersome
0.5627367128	dominate
0.5627352077	66
0.5627339359	16 qam
0.5627033534	possessing
0.5627033534	obey
0.5626742626	deleting
0.5626667882	down sampling
0.5626603077	done
0.5626576227	ieee 802154 standard
0.5626367128	occupies
0.5626367128	invoked
0.5626361639	communication patterns
0.5626296202	real life situations
0.5626238604	progressively
0.5626134694	neighbouring
0.5625811813	unmodified
0.5625629717	pursued
0.5625355150	voltage scaling dvs
0.5625344115	hinder
0.5625344003	existent
0.5625171435	an energy efficient
0.5624939285	sequential decision
0.5624880768	video packets
0.5624640711	advocate
0.5624560157	security related
0.5624234067	agent oriented software
0.5623935430	network load
0.5623901437	region based image
0.5623536020	multiple targets
0.5623526861	uncertainty analysis
0.5623340657	prediction quality
0.5623238852	balances
0.5623033794	unifies
0.5622848539	appear
0.5622747820	arrives
0.5622649049	prediction scheme
0.5622635710	commonplace
0.5622635710	differed
0.5622635710	vastly
0.5622563942	based encryption
0.5622217718	bandwidths
0.5622027378	sum of squared
0.5621807156	carefully selected
0.5621427638	estimation procedure
0.5621224875	continually
0.5621180879	range dependence
0.5621095525	service model
0.5621002700	prototyped
0.5620857900	radii
0.5620739022	grid network
0.5620593498	scalable architecture
0.5620327711	geographic location
0.5620316279	prevented
0.5620201490	process variability
0.5619708400	next generation network
0.5619666531	plots
0.5619320113	objectively
0.5619097009	error performance
0.5619060658	steady state error
0.5619022800	chose
0.5618974044	encourages
0.5618963050	colleagues
0.5618775031	enters
0.5617969466	returning
0.5617635710	budgets
0.5617635710	acquires
0.5617635710	recognised
0.5617495262	titles
0.5617373333	central role
0.5617367128	decomposes
0.5617312046	wird
0.5617225016	understandable
0.5617187276	simulation results confirm
0.5617170214	sectors
0.5617118626	access ofdma
0.5616789544	better
0.5616709465	rapid development
0.5616367128	restricts
0.5616367128	expands
0.5616367128	violate
0.5616367128	envisioned
0.5616255152	tree model
0.5616022738	participants performed
0.5615982945	2k
0.5615950517	transmission mode
0.5615702152	den
0.5615629717	permitting
0.5615592527	approximately optimal
0.5615536033	supply network
0.5614813570	machine learning technique
0.5614325459	feature oriented
0.5614211015	sparse approximation
0.5614175674	rule based systems
0.5614110225	article presents
0.5614108364	refines
0.5614108364	reproduces
0.5614108364	corrects
0.5614108364	constituting
0.5614108364	faithfully
0.5613965662	implementable
0.5613828485	retains
0.5613336033	peculiar
0.5613282947	objective optimization problems
0.5613270214	signal processing algorithms
0.5613236959	probability distribution function
0.5613033794	enjoys
0.5612935894	learning goals
0.5612899827	positive correlation
0.5612774305	single level
0.5612635710	deteriorate
0.5612635710	retrieves
0.5612576909	unpredictable
0.5612356134	demanded
0.5612356134	overwhelming
0.5612356134	ment
0.5612356134	noticed
0.5612356134	propagates
0.5612336565	afford
0.5612336565	recommends
0.5612252117	relative position
0.5612108364	mediate
0.5612066435	video applications
0.5611779293	research activities
0.5611505414	rejected
0.5611369853	database management system
0.5610956492	cut off
0.5610934052	efficient multicast
0.5610736038	search method
0.5610715066	likely
0.5610663966	asymptotic performance
0.5610477962	normal behavior
0.5610253239	entering
0.5610216773	actual implementation
0.5609938463	intensity values
0.5609329537	positive predictive value
0.5609320113	comprehensively
0.5609161171	an agent based
0.5609086459	classification techniques
0.5609022800	attains
0.5609022800	enforces
0.5609022800	entered
0.5609022800	protects
0.5609022800	resemble
0.5608556666	users intention
0.5608549385	uniquely determined
0.5608524566	proactively
0.5608524566	graphically
0.5608524566	economically
0.5608255586	modeling environment
0.5608218608	always
0.5607913113	model building
0.5607822650	utilises
0.5607820722	across
0.5607713196	resolves
0.5607713196	cooperatively
0.5607713196	validates
0.5607677807	seen
0.5607426809	performance management
0.5607367128	temporarily
0.5607367128	implying
0.5607367128	necessitates
0.5607367128	hypothesize
0.5607325254	main contribution
0.5607298996	insignificant
0.5606810242	problematic
0.5606785446	user space
0.5606758356	storage resources
0.5606722213	selection policy
0.5606460570	re ranking
0.5605913965	pseudo random number
0.5605561499	learning model
0.5605536124	entitled
0.5605204809	similarity index
0.5604811186	net works
0.5604558787	observes
0.5604333103	unrealistic
0.5604333103	surveyed
0.5604184939	management support
0.5604166759	ieee 80216 standard
0.5603649612	routinely
0.5603649612	respects
0.5603546601	use
0.5602770628	software visualization
0.5602645396	seemingly
0.5602582600	diversity schemes
0.5602128390	local models
0.5601921424	utilise
0.5601921424	merges
0.5601918564	exchange protocols
0.5601895783	attentions
0.5601895783	alleviates
0.5601790729	adaptive algorithms
0.5601656070	about
0.5601224875	undergo
0.5601146210	renders
0.5600629717	additions
0.5600629717	opportunistically
0.5600211871	performance driven
0.5600169195	predominantly
0.5600054113	simulation runs
0.5599806689	nearby
0.5599717718	dominates
0.5599717718	surroundings
0.5599419793	unavailable
0.5599320113	unacceptable
0.5599022800	infers
0.5599022800	depicted
0.5598779867	discrete event system
0.5598622274	waveforms
0.5598592667	extraction algorithm
0.5598222073	dynamism
0.5597904119	viewers
0.5597771644	antenna systems
0.5597080154	radically
0.5597052991	motion recognition
0.5596903099	group level
0.5596635877	manipulation tasks
0.5596298996	deleted
0.5596290610	oriented architecture
0.5596146210	sends
0.5596146210	saves
0.5596146210	converts
0.5596093541	step sizes
0.5595993758	information transmission
0.5595534070	complex adaptive
0.5595507914	benchmarked
0.5595435609	business value
0.5595400427	mainly
0.5595283262	external sources
0.5595229117	accelerates
0.5594858746	accepts
0.5594858746	realistically
0.5594689467	45nm
0.5594342274	connects
0.5594342274	ineffective
0.5593993806	matrix computation
0.5593794627	elusive
0.5593398588	autonomous control
0.5593024031	ill conditioned
0.5592735358	limitationsimplications
0.5592645396	instantiated
0.5592430991	conducts
0.5592430991	unsatisfactory
0.5592336460	finished
0.5592336460	competitors
0.5592219112	multiple kernel
0.5592059278	core nodes
0.5591657921	synchronization control
0.5591555921	reasoning approach
0.5591264669	server architecture
0.5591241952	entity recognition
0.5591204469	carrier interference ici
0.5591123027	human language
0.5591086460	finer
0.5590717718	lose
0.5590717718	densely
0.5590676342	large scale applications
0.5590667352	60 ghz
0.5590405271	cheap
0.5590359796	discovers
0.5589962132	individual agents
0.5589437744	visits
0.5589022800	ignores
0.5589022800	resembles
0.5588953091	safety applications
0.5588597995	noises
0.5588205607	tuples
0.5587982465	against
0.5587753127	literatures
0.5587713196	modifies
0.5587713196	expresses
0.5587576646	forecasting models
0.5587177424	maximum error
0.5587089318	mobile peer to peer
0.5586858462	related words
0.5586650132	geometric graphs
0.5586624573	co allocation
0.5586453264	activity detection
0.5586420795	reuters 21578
0.5586170360	elliptic partial differential
0.5585954546	solved numerically
0.5585847512	multiple domains
0.5585759828	non uniformity
0.5585431698	displacements
0.5585333103	prohibitive
0.5585229117	satisfactorily
0.5584928036	agreed
0.5584656172	sub carriers
0.5584554946	fading environment
0.5584414896	problem instance
0.5584342274	encodes
0.5584342274	simulates
0.5584342274	incurs
0.5584003231	invoke
0.5584003231	completes
0.5583875526	adds
0.5583830296	someone
0.5583792203	empirically validated
0.5583520425	spacing
0.5583478617	rigorously
0.5583028445	composition of web services
0.5582906130	grid networks
0.5582713976	design constraints
0.5582477899	aged
0.5582228729	useless
0.5582050045	seldom
0.5582032079	fuzzy logic systems
0.5581902312	valued fuzzy sets
0.5581871701	separates
0.5581356134	revenues
0.5581140663	sift based
0.5581087906	sequentially
0.5581086460	executes
0.5581043805	undesired
0.5581012108	stored data
0.5580968931	5
0.5580861380	complements
0.5580717718	govern
0.5580717718	steadily
0.5580629717	reproduced
0.5580490697	human expert
0.5580043805	permitted
0.5579479544	hypothesized
0.5579273274	encoders
0.5579022800	tions
0.5578874684	way
0.5578378088	experimentally evaluated
0.5578275499	axes
0.5578222073	stops
0.5578071124	real data sets
0.5577998157	similarity function
0.5577828371	semantic relationships
0.5577318594	ranks
0.5577192079	began
0.5577192079	tolerable
0.5576867803	significantly higher
0.5576777036	compile time
0.5576410028	automated design
0.5575590713	variable neighborhood
0.5575476529	taken
0.5575205034	unchanged
0.5574599997	reasoning tasks
0.5574581524	a domain specific language
0.5574342274	regularly
0.5574270981	amount
0.5574003231	adversely
0.5573973869	subsystems
0.5573478617	emphasized
0.5573478617	behaves
0.5572876797	based image segmentation
0.5572735358	encompasses
0.5572735358	recognizes
0.5572629423	any
0.5572430991	intriguing
0.5572250897	frequency distributions
0.5572182943	parallel composition
0.5571871701	allocates
0.5571739871	exponentially distributed
0.5571477044	comparable accuracy
0.5571456711	adaptive educational
0.5571436748	recognizing human
0.5571435445	image contrast
0.5571133265	degree of freedom
0.5571045944	data driven approach
0.5571043805	magnitudes
0.5570366868	reformulate
0.5570366868	complicates
0.5570351482	exceeding
0.5569805653	fuzzy environment
0.5569547877	service architecture
0.5569458673	world of warcraft
0.5569172593	large areas
0.5569165928	adaptive feedback
0.5569125581	roc analysis
0.5568898608	systems with time delay
0.5568804221	fingers
0.5568597995	commands
0.5568479418	others
0.5567954725	made
0.5567671029	suitably
0.5567586795	robust detection
0.5567538245	between
0.5566776239	guides
0.5566371721	verifies
0.5566371721	noted
0.5566371721	treats
0.5566326372	non gaussian noise
0.5565725678	scattering problems
0.5565566757	web based interface
0.5565452265	probability map
0.5565093556	matrix theory
0.5565026504	shares
0.5564757475	raises
0.5564640532	resource limited
0.5564573970	conveniently
0.5564474559	contains
0.5564415530	bound crb
0.5564299100	necessary
0.5563993540	decision tree algorithm
0.5563948844	segmentation technique
0.5563929631	biological function
0.5563900906	non stationary
0.5563046613	3
0.5562746168	information rate
0.5562667610	particular
0.5562256244	violated
0.5562037794	background image
0.5561768682	storage requirements
0.5561485145	f score
0.5561424142	ing
0.5561390567	multi player
0.5560861380	propositions
0.5560670945	deficiencies
0.5560527601	cpu based
0.5559864795	1
0.5559806689	contacts
0.5559168445	unknown environments
0.5559045288	quality level
0.5558889199	still
0.5558777192	described
0.5558706174	networked embedded
0.5558442086	evolution process
0.5558213561	time reversal
0.5558028316	splitting method
0.5557879531	spatial networks
0.5557629176	code optimization
0.5557209163	autonomously
0.5557083674	through silicon via
0.5556819471	human visual
0.5556561898	image distortion
0.5556378255	fuzzy genetic
0.5556231231	knowledge structures
0.5556189150	adaptively
0.5556091900	test framework
0.5555592882	become
0.5555478638	disparate
0.5555106347	destinations
0.5555106347	profits
0.5554811583	programming problem
0.5554695997	of
0.5554573970	intelligently
0.5554318886	early warning system
0.5554301600	experimental result shows
0.5554021023	dynamic background
0.5553923165	nonlinear model
0.5553780618	cognitive model
0.5553218984	control signal
0.5553044442	radar images
0.5552856735	unit gpu
0.5552800384	filter based
0.5552106694	imaging data
0.5551729447	replicas
0.5551615698	paper proposes
0.5551565011	information discovery
0.5551553687	missed
0.5551531324	routing information
0.5551279087	allows
0.5551175583	multiple languages
0.5551124940	operation mode
0.5550929114	available
0.5550387498	syntactic information
0.5549942464	communications systems
0.5549746800	experimental results confirm
0.5549637651	language understanding
0.5549613215	color and texture
0.5549564458	project development
0.5549403311	substrates
0.5549064029	conjectured
0.5548942412	pseudo polynomial
0.5548811042	automatically select
0.5548673247	user throughput
0.5548525114	wireless cooperative
0.5548276798	starting points
0.5548107276	optimization based
0.5547940674	data mining process
0.5547901928	formalisms
0.5547750440	application driven
0.5547491125	operating system
0.5547098136	value creation
0.5546763360	wide association studies
0.5546382189	hostile environments
0.5546305002	virtual learning
0.5546242583	qualities
0.5546112745	user location
0.5546083864	4d
0.5546075182	minimal model
0.5545815815	speeds
0.5545459271	discontinuities
0.5545399531	path problem
0.5545104802	time of flight tof
0.5545077079	particle based
0.5544979618	actively
0.5544770543	variances
0.5544383420	etc
0.5544381538	time series analysis
0.5544257264	exhibiting
0.5543856650	analytical framework
0.5543475669	internal nodes
0.5543203486	research area
0.5542909367	end to end delays
0.5542842583	yielded
0.5542826316	classification models
0.5542500442	numerical data
0.5542222824	ambiguities
0.5541334507	part ii
0.5541235667	leverages
0.5541235667	receives
0.5541235667	argued
0.5541149859	side information
0.5540906033	comes
0.5540649129	prediction mode
0.5539719845	knows
0.5539698879	encryption and decryption
0.5539616844	probabilistic analysis
0.5539437409	data cache
0.5539165967	video traffic
0.5539016183	evident
0.5538928215	single output siso
0.5538632793	elaborated
0.5538632793	biggest
0.5538561112	thin client
0.5538539059	frequency components
0.5538531794	backgrounds
0.5538051579	nonzero
0.5537852133	plug and play
0.5537028624	server side
0.5537015906	peer to peer network
0.5536251811	2011
0.5536242583	handles
0.5536235261	statically
0.5535779359	function evaluation
0.5535218003	branches
0.5535118168	decomposition svd
0.5534784054	prevents
0.5534784054	optimizes
0.5534769138	recovery algorithm
0.5534641341	distance field
0.5534635667	tion
0.5534110992	self managing
0.5533596406	fast fourier
0.5533547837	power delay
0.5533116829	major difficulty
0.5532908047	useful
0.5532691909	fully exploit
0.5531636780	yielding
0.5531618457	counterparts
0.5531268879	actually
0.5531026504	concentrations
0.5530670945	carries
0.5530670945	entails
0.5530582150	noise covariance
0.5530366676	search terms
0.5529895558	server based
0.5529837725	treatments
0.5529723600	andor
0.5529064029	emphasizes
0.5528752137	dynamically adapt
0.5528710343	routing efficiency
0.5528469809	geometric graph
0.5528255067	neural network structure
0.5528216127	strongest
0.5528216127	transparently
0.5528130895	uwb communication
0.5528054727	decoded
0.5528032264	point based
0.5527694570	optimal threshold
0.5527402567	or
0.5527084612	imaging techniques
0.5526987400	clinical application
0.5526816505	local convergence
0.5526725780	1000
0.5526497699	mapping rules
0.5526242583	reaches
0.5526013919	possible
0.5525256121	co located
0.5525227250	maximum power
0.5525155782	leaving
0.5524809501	smoothly
0.5524784054	months
0.5524531063	large bandwidth
0.5524329888	simplest
0.5523922893	selection procedure
0.5523458336	via
0.5523286074	workloads
0.5522825030	internal dynamics
0.5522792116	service access
0.5522785520	learning techniques
0.5522619059	real world objects
0.5522140318	fine details
0.5522002475	4
0.5522000004	out
0.5521879531	evaluation studies
0.5521846242	compute resources
0.5521683833	chip interconnect
0.5520820691	performance models
0.5520687938	interval based
0.5520573449	got
0.5520542496	persons
0.5520400009	paper introduces
0.5520375359	discretized
0.5520363337	anticipated
0.5520313027	graph structure
0.5520231952	digital information
0.5520011541	eliminates
0.5520011541	concluded
0.5519886282	one class support vector
0.5519777202	number of transmit antennas
0.5519721117	end to end
0.5519324013	describe
0.5518678751	touch based
0.5518373721	an empirical investigation
0.5518049797	analytic approach
0.5517617352	rule selection
0.5517517276	driving performance
0.5517258439	information aggregation
0.5517147164	sub threshold
0.5516836803	able
0.5516655536	uses
0.5516584993	ensemble approach
0.5515774033	0001
0.5515670945	flexibly
0.5515647006	receiver structure
0.5515577949	forward relay
0.5515201053	resources management
0.5514635667	highlighted
0.5514635667	simplifies
0.5514199150	communication bandwidth
0.5514083249	design environment
0.5514076369	rapidly evolving
0.5513388567	known
0.5513336565	eg
0.5513215455	coordinate systems
0.5512934044	side chain
0.5512316958	globally asymptotically
0.5512042026	owners
0.5511862616	found
0.5511329922	interest points
0.5511093811	main ideas
0.5511060374	related factors
0.5510752439	scarce
0.5510629878	ns 2
0.5510293099	text document
0.5510164551	everybody
0.5510011541	gave
0.5509742555	run times
0.5509739115	intensities
0.5509704483	assessment model
0.5509615410	web services based
0.5509442221	node pairs
0.5509312780	optical images
0.5509064029	collects
0.5509064029	realizes
0.5509064029	remained
0.5509003960	segmentation and classification
0.5508959410	character based
0.5508572634	learning to rank
0.5508170945	rated
0.5508170945	revisit
0.5507844372	video database
0.5507588359	search area
0.5507420082	confirms
0.5507119545	cited
0.5507118881	positively correlated
0.5507019366	subspace methods
0.5506695021	correct classification
0.5506501326	fuzzy decision
0.5506253947	points to analysis
0.5505661978	hrp 2
0.5505594752	military applications
0.5505515321	possesses
0.5505373625	multi objective optimization problem
0.5505024087	communication environment
0.5504784054	maximized
0.5504750750	machine scheduling problem
0.5504657610	routes
0.5504638769	far end
0.5504255916	achieving high
0.5504161548	local linear
0.5504147820	inference problem
0.5503992307	entries
0.5503246835	overcomes
0.5503214005	embedded computing
0.5502593598	technical details
0.5502556123	intrinsic mode
0.5502042026	amplitudes
0.5501770420	617 253
0.5501618457	counterpart
0.5501488875	research field
0.5501427185	cut problem
0.5501320959	two sided
0.5501314509	travel time
0.5501216373	additive white gaussian
0.5500987121	a case study
0.5500391994	closed loop systems
0.5500306158	illustrating
0.5500187955	table dht
0.5500154549	greatly improved
0.5500074957	x rays
0.5499889491	wires
0.5499632402	automatically generates
0.5499406417	analog to digital
0.5499077066	analytical hierarchy
0.5499064029	incur
0.5498624084	logic design
0.5498528324	image frames
0.5498387024	relevant aspects
0.5498348655	length distribution
0.5497420082	characterizes
0.5497357439	design methods
0.5497343503	rule learning
0.5497157908	coupled systems
0.5496998465	segmentations
0.5496889491	routines
0.5496769423	web user
0.5496693376	cad systems
0.5496142276	channel variations
0.5495585435	only
0.5495561250	connectivity requirements
0.5494911145	technology enhanced
0.5494708391	protein complex
0.5494342125	security level
0.5494280460	process modelling
0.5493277437	provides
0.5493152036	having
0.5492940942	propagation conditions
0.5492584559	frame by frame
0.5492417526	noise robustness
0.5492202534	man made
0.5492143589	classifies
0.5491766089	logic functions
0.5491749316	benchmark problem
0.5491615746	varying parameters
0.5491427650	robust features
0.5491016127	multiprocessors cmps
0.5490968470	repeatedly
0.5490958022	external environment
0.5490596148	switching power
0.5490568879	european journal
0.5490560685	transmits
0.5490537762	schedules
0.5490163543	estimation problem
0.5489061796	relationship management
0.5488983328	appropriate
0.5488738286	divides
0.5488738286	promotes
0.5488661598	own
0.5488303704	selection methods
0.5487339113	002
0.5487122237	opens
0.5487106847	learning efficiency
0.5486867310	commercial tools
0.5486850148	places
0.5486766861	base line
0.5486560685	specifies
0.5486560685	hisher
0.5486535951	considerable attention
0.5486210920	rendered
0.5485938691	lower computational complexity
0.5485855485	around
0.5485254330	description length mdl
0.5485223371	interest point
0.5484426343	file system
0.5484199222	objective space
0.5484114374	business level
0.5483924029	128 bit
0.5483701263	personal digital
0.5483246835	obtains
0.5483246835	constitutes
0.5483033909	front ends
0.5482587819	modifications
0.5482518330	comprise
0.5482473483	fuzzy expert
0.5482383458	overheads
0.5482286358	authentication codes
0.5481846602	respectively
0.5481666573	survey data
0.5481560685	researched
0.5481560685	chooses
0.5481560685	manages
0.5481485453	efficient storage
0.5481293283	passive dynamic
0.5481235896	velocities
0.5480957045	optimally
0.5480380596	research topic
0.5480178407	interference management
0.5480075626	iteratively
0.5479587756	high degree
0.5478915491	robustly
0.5478427991	web query
0.5477995798	significantly degrade
0.5477921497	mixture modeling
0.5477562562	model construction
0.5477205626	reference set
0.5476652503	single class
0.5476560685	evolves
0.5476560685	exceeds
0.5476560685	calculates
0.5476560685	assigns
0.5476560685	outperformed
0.5476560685	imposes
0.5476560685	lacks
0.5475926471	continues to grow
0.5475761885	ones
0.5475747953	weeks
0.5475746302	surface model
0.5475658569	due date
0.5475624340	54
0.5475289476	population level
0.5475007928	gradually
0.5474800123	distributed constraint
0.5474783982	ann models
0.5474619070	networks on chip
0.5473898360	and
0.5473687490	carefully designed
0.5473484070	sensible
0.5473246835	maximizes
0.5473006966	removes
0.5472991775	t norms
0.5472977239	experimental conditions
0.5472789928	ad hoc networks vanets
0.5472691948	generation process
0.5472685873	space model
0.5472535549	related concepts
0.5472383458	individually
0.5472153978	mild cognitive
0.5472113038	analytic models
0.5472052261	network configuration
0.5471717150	based watermarking
0.5471095769	bus based
0.5471023109	de la
0.5470688672	clustering result
0.5470109073	approximates
0.5470109073	induces
0.5470014006	distance computation
0.5469807407	commonly adopted
0.5469789579	mixture model gmm
0.5469645198	needs
0.5469403429	isnt
0.5468976460	research areas
0.5468933274	sequencing technologies
0.5468455891	traces collected
0.5468271932	e coli
0.5468187085	inefficient
0.5468003140	low power and low
0.5467947118	software implementations
0.5467775630	superior performance
0.5467700045	optimal choice
0.5467503978	jump linear
0.5467368030	structure interaction
0.5467353751	comprising
0.5467123908	list based
0.5466631957	mechanisms underlying
0.5466580168	comprises
0.5466580168	maintains
0.5466580168	generalizes
0.5466560685	delivers
0.5466152645	configuration parameters
0.5466009987	large networks
0.5465716791	preserves
0.5465553808	feature model
0.5465184405	social processes
0.5465113129	tens of thousands
0.5465007928	implicitly
0.5464944188	high spectral efficiency
0.5464382651	training stage
0.5463273023	image clustering
0.5463246835	fairly
0.5463025358	consider
0.5462877827	input parameters
0.5462299384	content management system
0.5462208238	cell types
0.5461565255	channel estimates
0.5461531405	directed acyclic
0.5461441965	algebraic structures
0.5461357396	feasibility problem
0.5461338319	25d
0.5461273142	challenges faced
0.5461158929	quantitative study
0.5460729899	asynchronous systems
0.5460571489	benchmark programs
0.5460540373	processing overhead
0.5460530298	primary concern
0.5460451460	time warp
0.5460213195	textual data
0.5460073404	semantic video
0.5459670987	operational costs
0.5458936419	article describes
0.5458905792	local interactions
0.5458650297	automatically detected
0.5458253995	1f
0.5458201445	spatial structure
0.5458194547	security applications
0.5457886699	great potential
0.5457653781	linear operator
0.5456502107	total power consumption
0.5456362756	safely
0.5456336689	uplink and downlink
0.5456310956	theoretical background
0.5456239534	human life
0.5455808293	point detection
0.5455399798	loop simulation
0.5455109073	admits
0.5454987138	critical systems
0.5454942201	mobile code
0.5453884302	tcp based
0.5453681796	measurement matrix
0.5453522149	research question
0.5453106942	meanings
0.5452967979	saved
0.5452912130	learning stage
0.5452728713	topic based
0.5452705272	transmission energy
0.5452533791	57
0.5451983046	localization techniques
0.5451534563	newly developed
0.5451352296	k nearest
0.5451062647	segmentation result
0.5450618880	multiple inputs
0.5450450867	hierarchical model
0.5450031449	somehow
0.5449998081	channel mac
0.5449773609	interferences
0.5449721547	coordination function
0.5449712165	efficiencies
0.5449113853	legitimate users
0.5448074844	generation partnership
0.5447985135	graph structures
0.5447353751	shortcomings
0.5447243194	local memory
0.5446449382	somewhat
0.5446065987	t cell
0.5446060113	on chip interconnect
0.5445915403	semantic distance
0.5445821419	cost efficiency
0.5445557581	unique characteristics
0.5445241138	rank matrix
0.5444850770	negligible overhead
0.5444643659	significant speedup
0.5444431109	low power low
0.5444242353	recently attracted
0.5444211885	local information
0.5443981549	partitioning technique
0.5443244609	infeasible
0.5443241376	primal and dual
0.5442932756	large scale data
0.5442776063	099
0.5442525783	fundamental question
0.5442496368	quantum algorithm
0.5442105121	dc converter
0.5441794268	implicit knowledge
0.5441516113	36
0.5441024579	near capacity
0.5440720674	lower levels
0.5440716329	resource intensive
0.5440651716	patient information
0.5440326798	memory performance
0.5440309998	client applications
0.5440266518	secure key
0.5439419270	interactively
0.5439349592	adaptive neural network
0.5438827722	high level specification
0.5438400106	encoder and decoder
0.5438341261	indicating
0.5438240154	need
0.5438187085	varied
0.5438187085	days
0.5438176804	data migration
0.5438090560	computational tools
0.5437014425	clear separation
0.5436925794	recognition performance
0.5436379971	segmentation techniques
0.5436210442	interference constraints
0.5436130172	multiple input multiple output mimo wireless
0.5436050194	alternative approaches
0.5435920427	replication scheme
0.5435840711	very high resolution
0.5435661678	evaluation tool
0.5435461791	018 mum cmos
0.5435459833	filtering methods
0.5435159965	pre existing
0.5434582899	interpolation algorithm
0.5434159203	past research
0.5433809009	else
0.5433707753	key concept
0.5433691540	formal representation
0.5433258909	spectral information
0.5433061473	synchronization mechanism
0.5432675291	size reduction
0.5432672261	static timing
0.5432529043	verification conditions
0.5431967450	cost based
0.5431651337	coded mimo
0.5431553421	reliably
0.5431384543	multi dimensional data
0.5430855596	detects
0.5430204884	32 bit
0.5430107748	primary contribution
0.5429571778	latencies
0.5429455545	fluid dynamics cfd
0.5428752333	routing protocol for wireless sensor networks
0.5428742139	voxels
0.5428504480	fully utilized
0.5428471514	transfer protocol
0.5428434955	global shape
0.5428343730	image resolution
0.5427767610	previous algorithms
0.5427695682	information and communication technologies
0.5427684001	briefly review
0.5427617441	small perturbations
0.5427260294	ieee 80211 wireless
0.5427110123	semantic web data
0.5427017138	sequential learning
0.5426898581	existing methods
0.5426811582	used
0.5426671064	increases exponentially
0.5426636599	retrieval models
0.5425740972	multiple users
0.5425063929	says
0.5424577159	supported collaborative learning
0.5424388502	off line
0.5424331618	203
0.5424331618	260
0.5422867868	give
0.5422865845	solved efficiently
0.5422370257	security property
0.5422233678	channel knowledge
0.5421990163	information display
0.5421614622	substantial improvements
0.5421557603	dynamic voltage
0.5421473163	statistical modeling
0.5421398026	motion model
0.5421387354	logic controllers
0.5421268425	streaming systems
0.5421176156	article explores
0.5421125647	main result
0.5420655240	security technologies
0.5420243224	semantic data
0.5420026063	097
0.5420026063	345
0.5420026063	179
0.5420026063	148
0.5420016576	dynamic behavior
0.5419894137	random network
0.5419257765	hardware resource
0.5418730451	field test
0.5418544772	participants completed
0.5418457167	computationally feasible
0.5418283079	relative efficiency
0.5417941500	calibration methods
0.5416730375	training algorithms
0.5416380245	query object
0.5416319239	high classification accuracy
0.5415563065	regularization methods
0.5415523234	1978
0.5415476950	case control
0.5414808871	multiple camera
0.5414775884	significantly increase
0.5414648902	exact algorithms
0.5413782827	code division multiple access ds cdma
0.5413716127	orders of magnitude faster
0.5413715960	linear embedding
0.5413430328	verification framework
0.5413373201	fuzzy weighted
0.5413338820	clock network
0.5413181379	one shot
0.5413055508	non newtonian
0.5413007543	classical linear
0.5412945049	oil and gas
0.5411640281	synthetic and real world
0.5410604064	grows linearly
0.5410391428	l fuzzy
0.5410286927	symmetric and asymmetric
0.5409958704	camera networks
0.5409740395	non markovian
0.5408700508	hybrid neural
0.5408601463	input output data
0.5408464396	article proposes
0.5408109959	measurement results
0.5408101217	310
0.5407886926	ensures
0.5407879447	optimization theory
0.5407725683	practical applications
0.5407672610	k means clustering algorithm
0.5407596078	fuzzy model
0.5407128995	1200
0.5407128995	185
0.5406715226	090
0.5406715226	092
0.5406541875	ordinary users
0.5406227068	biological functions
0.5406171478	went
0.5406164328	169
0.5406164328	154
0.5406164328	224
0.5406005789	density distribution
0.5405828528	design processes
0.5405743004	137
0.5405743004	2500
0.5405743004	285
0.5405743004	1974
0.5405713497	common platform
0.5405445246	future networks
0.5405401051	creates
0.5405400500	heuristic based
0.5405243307	65 nm
0.5405186830	speech emotion
0.5404775767	parsing algorithm
0.5403710770	expert users
0.5403363823	rate regions
0.5403331915	computer games
0.5402793746	jointly
0.5402564320	user multiple input
0.5401938108	forward and backward
0.5401630205	newly proposed
0.5401505709	systematic evaluation
0.5401231268	global optimal solution
0.5401129177	growing rapidly
0.5400716393	european research
0.5400222069	design tradeoffs
0.5400048559	50000
0.5400007210	link bandwidth
0.5399627238	multiple receivers
0.5399582587	traffic model
0.5399553593	selects
0.5399553593	avoids
0.5399490421	fuzzy adaptive
0.5399215002	per hop
0.5399204567	global solution
0.5398900513	existing software
0.5398813585	cr network
0.5398343952	ambient assisted
0.5397886926	implements
0.5397823884	processing stages
0.5397007701	users behavior
0.5396938918	special interest
0.5396892155	nothing
0.5396803857	a systematic review
0.5396506573	valued function
0.5396164328	didnt
0.5396164328	163
0.5395962211	attracted attention
0.5395503183	poor performance
0.5394641260	alignment algorithm
0.5394264794	division multiple access cdma
0.5394256089	stand alone
0.5393722888	nor
0.5393626790	proposed method
0.5393413169	experimentally determined
0.5393161688	automated support
0.5393128885	transform based
0.5392264925	right hemisphere
0.5392056071	multimodal functions
0.5391688330	substantially reduce
0.5391201866	highly similar
0.5391127446	explicit solutions
0.5390184005	score level
0.5390006936	probably
0.5389911502	self care
0.5389606312	input traffic
0.5389519931	architectural framework
0.5389493843	turns
0.5389108880	statistical analysis and data mining
0.5388882612	optimization strategy
0.5388253224	almost surely
0.5388153440	automated analysis
0.5388096273	critically important
0.5387420377	foreground and background
0.5386808888	station bs
0.5386698195	j combin
0.5386435313	poses
0.5385867185	code division
0.5385767688	optimization criterion
0.5385737365	weighted fuzzy
0.5385719883	239
0.5385719883	230
0.5385325556	database management
0.5385180996	fundamental concepts
0.5384921728	specification and verification
0.5384916485	field size
0.5384808376	oriented programming aop
0.5384534084	based rendering
0.5384125851	fully exploited
0.5383641440	random selection
0.5383103331	final decision
0.5382979781	economies of scale
0.5382916935	short paper
0.5382571921	theoretical concepts
0.5381578213	physical resources
0.5380947444	nonlinear equation
0.5380930796	high demand
0.5380401622	algorithm finds
0.5379938343	sum of absolute
0.5379726138	estimation scheme
0.5379068438	imprecise information
0.5378713581	three phase
0.5378265859	dynamic network
0.5378046011	480
0.5377886926	minimizes
0.5377758644	time series data
0.5377709497	bam neural networks
0.5377257872	switching scheme
0.5377081659	control technique
0.5376357710	211
0.5376234785	test power
0.5376175503	inter channel
0.5376111925	spatial correlations
0.5376000068	binary erasure
0.5375744069	satisfies
0.5375555696	how
0.5375552081	recent decades
0.5375389372	physical objects
0.5375360898	common belief
0.5375328479	discrete time systems
0.5375179838	class based
0.5374987893	related issues
0.5374889646	computational power
0.5374823893	learning approach
0.5374386569	improved accuracy
0.5373588928	clustering results
0.5373451770	numerical studies
0.5373004882	inex 2009
0.5371943690	de novo
0.5370542329	off chip memory
0.5369814107	test problems
0.5369691044	235
0.5369691044	216
0.5369691044	144
0.5369691044	156
0.5369638818	mimo ofdm system
0.5368844885	management policies
0.5368773890	dynamically adjusted
0.5368668616	167
0.5368646608	group mobility
0.5368099726	visual feature
0.5367806524	predefined threshold
0.5367387613	modern society
0.5367010003	random linear
0.5366933419	adaptive multi
0.5366697185	data broadcasting
0.5366534900	134
0.5366419530	algorithm outperforms
0.5365793628	lower power consumption
0.5365771681	iterative closest
0.5365441730	based argumentation
0.5365181924	agent based approach
0.5364965603	multiple model
0.5364204799	important research issue
0.5364200062	positive effect
0.5363788956	image pair
0.5363662544	nonlinear models
0.5363453827	evaluation measure
0.5363214490	accurately identify
0.5362785094	its
0.5362691044	261
0.5362662850	allocation policy
0.5362565021	domain model
0.5362126510	feedback gain
0.5362050811	d dimensional
0.5362049172	motion estimation algorithm
0.5361830939	sender and receiver
0.5361767651	design issues
0.5361624888	self management
0.5361369244	1983
0.5361340314	denoising method
0.5361314686	matches
0.5361314686	systematically
0.5361305053	265
0.5361305053	181
0.5361305053	157
0.5361305053	129
0.5361305053	246
0.5360903301	power source
0.5360247547	255
0.5360230126	field study
0.5360026564	transmission delays
0.5359977522	data parallelism
0.5359691044	015
0.5359691044	178
0.5359691044	275
0.5359691044	085
0.5359691044	187
0.5359660161	a service saas
0.5359106627	inventory systems
0.5357634971	fast moving
0.5357601567	247
0.5357601567	1977
0.5357484781	mechanical design
0.5357442278	paper puts forward
0.5357317991	fundamental issues
0.5357087633	knowledge management system
0.5356847613	active research area
0.5356807142	section v
0.5356195631	simple rules
0.5356134904	main drawback
0.5356070238	general purpose computing
0.5355321734	detection methods
0.5355240151	data plane
0.5354724831	perturbation method
0.5354144408	everywhere
0.5353980218	linear time invariant systems
0.5353617015	theoretic analysis
0.5353414928	robot design
0.5352966669	threshold values
0.5352836405	motion parameters
0.5352620743	service guarantees
0.5351856683	theoretical studies
0.5351848873	control framework
0.5351774378	redundant data
0.5351593574	breadth first
0.5351589425	self localization
0.5351369244	168
0.5351337173	an experimental study
0.5351136947	symmetric group
0.5351010483	wimax systems
0.5350955993	large scale problems
0.5350933854	source level
0.5350843585	complex objects
0.5350832976	oriented design
0.5350598303	taking place
0.5350435391	significant performance gain
0.5350191094	clustering approaches
0.5349852649	real time monitoring
0.5349251410	64 bit
0.5349218041	possibly
0.5348702091	video images
0.5348500146	co ordination
0.5348245698	semantic service
0.5347685111	power level
0.5347436692	adaptation rules
0.5347172642	project selection
0.5346508144	neural systems
0.5346322712	friendly interface
0.5346024377	162
0.5345754451	parametric model
0.5345363403	distinctive feature
0.5345312976	plays
0.5345207238	nakagami m
0.5345153046	graphic processing
0.5345122675	significantly lower
0.5344243870	wherever
0.5343926684	data reporting
0.5343892532	best practice
0.5343086444	based speech synthesis
0.5342956419	integrates
0.5342887199	4000
0.5342887199	155
0.5341994830	an open source
0.5341975542	significantly increased
0.5341969427	coherence tomography
0.5341936787	optimization scheme
0.5341162579	expression level
0.5341106866	24 ghz
0.5341002408	linear threshold
0.5340344559	20000
0.5340288316	algebraic approach
0.5339492888	statistical data
0.5339236137	design framework
0.5339161709	117
0.5339143368	1997
0.5338873083	hybrid wireless
0.5338747553	dynamic models
0.5338682511	method outperforms
0.5338598185	random fuzzy
0.5338425502	tracking algorithms
0.5338361576	interactive simulation
0.5337963606	900
0.5337410410	task model
0.5337255112	numerical results
0.5337210473	gotten
0.5337162565	320
0.5336762181	automatic extraction
0.5336655952	rate loss
0.5336497529	data communication
0.5336280982	major concerns
0.5336201590	geometric modeling
0.5336096110	comprehensive analysis
0.5335812208	oriented approach
0.5335646413	np complete problem
0.5335607364	critical graph
0.5335282287	145
0.5335169573	80211 wireless lans
0.5334434745	evolutionary techniques
0.5333497557	post test
0.5333171505	newly defined
0.5333049894	176
0.5333049894	121
0.5332924335	111
0.5332887199	118
0.5332887199	114
0.5332708389	reasonable assumptions
0.5332570243	svr model
0.5332035911	himself
0.5331838825	dramatically reduces
0.5331453228	inner product
0.5331416776	model checking problem
0.5330493026	learning communities
0.5330344559	165
0.5329534612	inter symbol
0.5329377933	113
0.5328839309	095
0.5328104124	210
0.5328020981	single agent
0.5327963606	132
0.5327442931	update scheme
0.5327395179	modeling methods
0.5326346991	systematic review
0.5325948519	multiple devices
0.5325737425	data consistency
0.5325223931	digital technology
0.5325020841	simulation technique
0.5324848510	output data
0.5324321632	application scenarios
0.5324205666	features extracted
0.5323807492	decoding algorithms
0.5323677892	appreciate
0.5322284666	achieve full diversity
0.5321876261	correlation functions
0.5321296940	280
0.5320833667	noisy image
0.5320068013	unified process
0.5319892751	183
0.5319892751	131
0.5319618654	175
0.5319575023	450
0.5319201752	reinforcement learning based
0.5319058552	122
0.5319058552	133
0.5319007555	takes care
0.5318858519	descent method
0.5318732414	inherent limitations
0.5318328375	141
0.5317857146	classifier performance
0.5317822237	experimental research
0.5317475949	ex vivo
0.5316888955	236
0.5316884489	workflow model
0.5315976941	1976
0.5315948954	109
0.5315948954	124
0.5315948954	ought
0.5315850686	experimental measurements
0.5315632714	accurate approximation
0.5314757773	service development
0.5314640342	difficulties
0.5314385533	user community
0.5313735538	learning systems
0.5313716964	j combin theory
0.5313709424	network traces
0.5313350737	sensing technologies
0.5313156604	business to consumer
0.5313084046	6 dof
0.5312702446	simulation results
0.5312232262	computational challenges
0.5311818887	network on chip
0.5311476941	136
0.5311476941	350
0.5311476941	220
0.5311374302	distributed multimedia
0.5311202577	1981
0.5311074308	significant difference
0.5310968957	performance estimation
0.5310968382	147
0.5310965313	075
0.5310845173	peer to peer p2p systems
0.5310671534	color based
0.5310649135	non coherent
0.5310574357	video objects
0.5309885271	image structures
0.5309432542	system on chip soc
0.5309424130	hop wireless network
0.5309182388	classifier trained
0.5308883034	range data
0.5308805098	decision models
0.5308643439	nn classifier
0.5307886982	29
0.5307136081	functional data
0.5306977040	1972
0.5306764255	segmentation based
0.5306465313	177
0.5306125707	138
0.5305821906	6000
0.5305821906	127
0.5305023869	extremely important
0.5304562281	trade off analysis
0.5303591652	design complexity
0.5302992758	dramatically reduce
0.5302881114	distribution networks
0.5302489255	coding method
0.5302031007	surrounding environment
0.5302021258	domain of attraction
0.5301921027	channel information
0.5301640019	audio data
0.5301616962	functional equations
0.5301088606	108
0.5301003772	volume data
0.5300741058	analysis and data mining
0.5300666157	exponential growth
0.5300560495	implementation details
0.5300449148	tracking task
0.5300445862	relevance model
0.5300344559	116
0.5300344559	123
0.5300293885	timing information
0.5299766458	noise distribution
0.5299703230	experimentally observed
0.5299635048	170
0.5299094307	112
0.5298900043	integration method
0.5298317588	prior research
0.5298262498	vector regression svr
0.5297612933	bayesian models
0.5297172642	152
0.5296964385	rows and columns
0.5296879427	bargaining solution
0.5296041296	inference algorithms
0.5295744785	binary pattern
0.5295640679	knowledge resources
0.5295385625	membership problem
0.5295324470	126
0.5295250194	agreement protocols
0.5295188258	path tree
0.5294478674	full body
0.5293699584	experimental tests
0.5293375856	gone
0.5293285981	frequency analysis
0.5292528006	hybrid network
0.5291972984	100000
0.5291735659	database design
0.5291572202	135
0.5290459866	knowledge processing
0.5290247840	fusion based
0.5289886516	training method
0.5289834394	active control
0.5289781014	communication technologies ict
0.5289272899	minimize total
0.5289258922	network utility
0.5289182166	1975
0.5289010506	a systematic literature review
0.5288825851	distributed source
0.5288803526	hidden terminal
0.5288566883	design method
0.5287908357	245
0.5287716617	intra and inter
0.5286906313	storage requirement
0.5286266029	1973
0.5285928417	performance study
0.5285654465	great flexibility
0.5285581931	192
0.5285476426	user research
0.5284930092	cell broadband
0.5284752977	channel estimate
0.5284717880	153
0.5284591915	high content
0.5284375931	performance penalty
0.5283776317	topological properties
0.5283619883	coordination model
0.5283126830	102
0.5283126830	1979
0.5283125220	initial evaluation
0.5282358032	design elements
0.5281836577	probability estimates
0.5281674651	feature location
0.5281395497	testing technique
0.5280590586	test instances
0.5280549531	structured documents
0.5280150611	hard real time
0.5279553558	factors affect
0.5278768935	voltage and current
0.5278171837	unlike traditional
0.5278108463	rapid convergence
0.5277241690	195
0.5276261361	ill posed
0.5275788754	current generation
0.5275654228	large scale network
0.5275554279	collaborative tasks
0.5274474179	real traffic
0.5273935293	classification systems
0.5273009127	benchmark dataset
0.5272297479	radar systems
0.5271978328	previous proposals
0.5271609403	two hop
0.5271309990	authentication and authorization
0.5270833847	radix 2
0.5270787205	interval time varying
0.5270047996	multimedia service
0.5269883503	aware design
0.5267838537	range sensors
0.5267739415	multiple data sources
0.5267645369	synthetic images
0.5267445823	two stage
0.5267142392	severely limited
0.5266672539	dynamic selection
0.5265896501	statistical test
0.5264946640	superior performance compared
0.5264605400	network access
0.5264522850	reconstructed image
0.5264361235	computationally hard
0.5264158095	economic models
0.5263628683	uncertain environment
0.5263245416	uncertain linear
0.5260946139	non preemptive
0.5260628574	solution quality
0.5260494273	phase information
0.5260434488	design practice
0.5260412967	non rigid
0.5260046666	input constraints
0.5259306450	shape and size
0.5259238840	dynamic features
0.5259213390	1980
0.5259132902	design knowledge
0.5258960793	network models
0.5258553950	considerable improvement
0.5258135723	event analysis
0.5256984503	dynamic service
0.5256518797	sequence dependent
0.5256292839	103
0.5256169490	processor design
0.5256029022	fcm algorithm
0.5255614821	difference schemes
0.5254863189	open question
0.5254487284	1982
0.5254487284	1500
0.5253488641	spectral methods
0.5253451975	information infrastructure
0.5253303803	monitoring systems
0.5253126830	formerly
0.5252926807	practical applicability
0.5252901249	software solutions
0.5252818472	image set
0.5252725584	1985
0.5252670146	block structure
0.5252571046	neighbor search
0.5252193971	mark up
0.5252184545	parallel tasks
0.5251426566	information delivery
0.5251368738	dynamic topology
0.5250372126	dual problem
0.5249876173	definitely
0.5249823507	vary significantly
0.5249252360	information spaces
0.5249128013	test site
0.5248956819	article examines
0.5248692494	structure function
0.5248498402	results showed
0.5247868561	mimo wireless
0.5247777029	algorithm called
0.5247709284	share resources
0.5247682760	working conditions
0.5246453542	vod systems
0.5246292839	3000
0.5246026237	co occurring
0.5245987808	product features
0.5245464838	energy optimal
0.5245423711	standards based
0.5244915903	mapping strategies
0.5244770745	number of false positives
0.5244747589	approximation errors
0.5244633759	classification rate
0.5243632863	key concepts
0.5243628586	ratio sinr
0.5243516293	optimal strategies
0.5243431348	class classification
0.5243418006	ad hoc network manet
0.5243133384	change analysis
0.5243121152	cryptographic techniques
0.5242581436	correctly identified
0.5242543255	greater flexibility
0.5242150983	correcting codes
0.5242129476	distributed network
0.5241965180	region detection
0.5241926008	structural constraints
0.5241462397	computational domain
0.5241312978	significant negative
0.5241286965	digital systems
0.5241127665	grid technology
0.5240912246	run time
0.5240356794	an agent based model
0.5240271492	accuracy rates
0.5240142235	simulator ns 2
0.5238874450	evenly distributed
0.5238850656	elsewhere
0.5238743829	key cryptosystems
0.5238204841	noise detection
0.5238184091	heterogeneous sources
0.5237765326	network flows
0.5237684911	process execution
0.5237443710	reasoning process
0.5237294854	extraction process
0.5236283421	real world problems
0.5235862446	dynamic memory
0.5235602346	unlike existing
0.5235473833	connectivity based
0.5235430441	numerically stable
0.5235374838	algorithm achieves
0.5235372912	distribution systems
0.5234808917	1986
0.5234063883	network resource
0.5233715888	preference information
0.5233701794	computing devices
0.5233411134	additional information
0.5232835623	based machine translation
0.5231310765	continue to grow
0.5231118789	shop scheduling problems
0.5230590772	extremely fast
0.5230441431	data providers
0.5230067889	fast growing
0.5229833215	local maximum
0.5229630281	int j imaging syst technol 19
0.5229406388	self stabilization
0.5229183457	cognitive maps
0.5229039509	search engine results
0.5228313761	real time multimedia
0.5227874029	arithmetic mean
0.5227484215	solving large scale
0.5227406867	directional filter
0.5227012571	objective quality
0.5226910852	functional form
0.5226883339	future mobile
0.5226876329	protocol called
0.5226725502	interdisciplinary approach
0.5226475845	multi purpose
0.5226448164	average symbol error
0.5225852736	related information
0.5225114155	search process
0.5225057246	machine interfaces
0.5224732683	hybrid parallel
0.5224167133	intrinsic and extrinsic
0.5224142250	1987
0.5223984517	geometry based
0.5223914487	atomic force
0.5223281186	service process
0.5223224137	research fields
0.5222685716	main concerns
0.5222642069	amplitude modulation qam
0.5222256325	black and white
0.5222247399	satellite based
0.5222190819	temporal features
0.5222184687	performance comparisons
0.5222018028	u v
0.5221447821	registration process
0.5220885699	multi link
0.5220419576	orders of magnitude
0.5220390756	error term
0.5219949854	spectral images
0.5219482087	motor speed
0.5219307835	generation scheme
0.5219082354	system level design
0.5217923253	sampling methods
0.5217632162	190
0.5217632162	somewhere
0.5217593010	computer programming
0.5217537059	annotation scheme
0.5217292297	structural model
0.5216785450	separation bss
0.5216548312	biological research
0.5216202968	predictive power
0.5215901967	planning erp
0.5215028713	control gains
0.5214694243	existing algorithms
0.5214577151	construction scheme
0.5213584522	experimental evaluation shows
0.5213517188	frame structure
0.5213473101	task set
0.5213258750	audio based
0.5213183983	large scale multi
0.5212728538	search performance
0.5212244381	j comput chem
0.5211342959	feedback scheme
0.5211226456	whom
0.5211176903	gradient information
0.5210953158	multiple sensors
0.5210689528	filling algorithm
0.5209549994	to interference plus noise ratio sinr
0.5208955566	attracted much attention
0.5208415625	management infrastructure
0.5208217870	partial solutions
0.5208128749	e learning systems
0.5208000707	linear regression models
0.5207627980	self assessment
0.5206893432	synthetic datasets
0.5206872413	self organizing feature
0.5206430171	shape memory
0.5206304480	global optimization problem
0.5205904173	method achieves
0.5205878350	filtering algorithms
0.5205346968	alignment problem
0.5205020791	transmitters and receivers
0.5204823546	a model driven approach
0.5204699745	coherent detection
0.5204645329	dynamic feedback
0.5204415548	learning community
0.5204146151	labeled and unlabeled data
0.5204125545	finite set
0.5204078374	below
0.5203753639	bittorrent like
0.5203682252	testing methodology
0.5202864450	global robust
0.5202744876	namely
0.5202699918	identification systems
0.5202662931	hybrid architecture
0.5201882575	ieee transactions
0.5201550248	repeat request arq
0.5201027855	1024
0.5200616126	real datasets
0.5199396795	volatile memory
0.5199196494	concept based
0.5199032586	shape feature
0.5198615677	stable models
0.5198532787	selection approach
0.5198267557	an ontology based approach
0.5198246891	funded project
0.5198081942	vector machines svm
0.5197936630	data layout
0.5197682418	operating parameters
0.5197594198	dimensionality reduction method
0.5197414978	105
0.5197143169	service area
0.5197120153	research effort
0.5196905391	desired signal
0.5196144872	supervised learning approach
0.5195498173	field estimation
0.5194895019	self assembled
0.5194685017	analysis and modeling
0.5194354500	1984
0.5194354500	115
0.5193932781	image pixel
0.5193850602	point to point communication
0.5193490828	rate requirement
0.5193393780	activity based
0.5193146207	efficient implementation
0.5193017153	segmentation results
0.5192768234	digital design
0.5192490575	local motion
0.5192357709	candidate solutions
0.5191678670	inner products
0.5191238614	optimal placement
0.5191134833	pair of vertices
0.5190779875	estimation of distribution algorithm
0.5190170029	state university
0.5189667756	interference plus noise ratio sinr
0.5189098096	experimentally evaluate
0.5188898004	classification result
0.5188353827	secure software
0.5187414978	104
0.5186964916	cost analysis
0.5186943729	systems theory
0.5186386611	density functional
0.5186134855	diagnosis method
0.5186053115	addressable memory
0.5185988645	random processes
0.5185981228	users perspective
0.5185176436	color distribution
0.5184947343	free parameters
0.5184503616	encouraging results
0.5184449669	local regions
0.5183976000	real life data sets
0.5183287491	risk based
0.5183180391	significantly affected
0.5182453739	least cost
0.5182204609	significantly larger
0.5181338352	camera control
0.5180575217	compressed data
0.5179370836	intelligent environment
0.5179355581	completely distributed
0.5179270029	camera model
0.5179247370	lower computational cost
0.5179161683	construction methods
0.5178795976	robot dynamics
0.5177400048	design strategy
0.5176879153	future generation
0.5176682191	significant savings
0.5176208173	rate constraints
0.5176027855	140
0.5175978268	one way hash
0.5175898617	cooperative scheme
0.5175895189	unstructured environments
0.5175850681	evaluation strategy
0.5175716855	growing importance
0.5175482883	particle size
0.5175326357	authenticated key
0.5174209617	traffic anomaly
0.5173889405	highly flexible
0.5173882959	originally introduced
0.5173845578	difference method
0.5173749996	main findings
0.5173365703	initial stage
0.5173175682	fast search
0.5172414978	240
0.5171848149	acoustic communication
0.5171308472	ordered set
0.5171225917	proof of concept prototype
0.5171176896	biological process
0.5170889508	individual preferences
0.5169914479	cognitive functions
0.5169674873	high computational cost
0.5169637375	transmission strategies
0.5169539550	students and teachers
0.5169201018	key size
0.5169074967	basic research
0.5168910672	number of test cases
0.5168763560	continuous time
0.5168561084	efficient access
0.5168500083	him
0.5168046828	large capacity
0.5167428537	dynamic graphs
0.5167393345	27
0.5167239543	high security
0.5167068220	channel modeling
0.5166723812	high performance and low
0.5166471813	taking advantage
0.5165595158	generalized multi
0.5164728474	engineering principles
0.5164410188	dimensional euclidean
0.5164279536	information and communication technology
0.5164214035	zero sum
0.5164190701	core component
0.5164139818	experimental results demonstrate
0.5163822568	direct method
0.5163368859	transmission systems
0.5163323899	sight nlos
0.5162561382	results suggest
0.5162553172	maximum allowable
0.5162296010	binary variables
0.5162050413	location problems
0.5161948571	platform architecture
0.5161638569	high signal to noise ratio snr
0.5161029186	physical space
0.5160847247	decomposition technique
0.5160602075	hybrid models
0.5160151253	data symbols
0.5159851164	interacting multiple
0.5159716482	distributed software
0.5159687972	stochastic linear
0.5158958441	09
0.5158930615	ourselves
0.5158926634	recent research
0.5158872323	switching control
0.5158595760	neural network models
0.5158197819	classification schemes
0.5157842530	optimal detection
0.5157755332	generated code
0.5157454071	object models
0.5157393345	05
0.5157386030	goal models
0.5157282362	impaired users
0.5156703278	independent tasks
0.5156164080	data imputation
0.5156158104	high compression
0.5155926769	motion sequences
0.5155197847	distributed program including test data etc
0.5155046532	log log n
0.5154791774	000
0.5154413579	fitting method
0.5153890216	complementarity problem
0.5153889892	cooperative behavior
0.5153830535	025
0.5153666822	testing procedure
0.5153223989	optimal algorithms
0.5153075304	current practices
0.5152998087	denoising algorithm
0.5152756940	diagnosis cad
0.5152606296	short message
0.5152291774	1990
0.5152282916	5000
0.5152230174	decision space
0.5151998060	attitudes toward
0.5151710082	signal strength rss
0.5151440765	significantly affect
0.5151420782	3 dof
0.5150756385	paper presents
0.5150417707	effectively reduce
0.5150407899	hoc networks
0.5150327763	directly or indirectly
0.5150274874	ensemble based
0.5150156246	chinese word
0.5150067896	target platform
0.5149460487	allocation problems
0.5149122397	exploration and exploitation
0.5148621496	functional logic
0.5148486192	test cost
0.5148348718	network layers
0.5148174657	construction method
0.5147924317	nlp techniques
0.5147737524	96
0.5147737524	41
0.5147618424	de una
0.5147371013	important factors
0.5147216030	on demand distance vector
0.5146499483	motion data
0.5146211986	inter mode
0.5146168079	aggregated data
0.5146145601	long sequences
0.5145736337	small numbers
0.5145605917	enterprise resource
0.5144404190	08
0.5144404190	1996
0.5144100368	variational iteration
0.5143874629	formal concept
0.5143141848	75
0.5143087209	gene and protein
0.5142861708	based approaches
0.5142710160	contributions include
0.5142490094	mean curvature
0.5142302747	001
0.5142291774	02
0.5142291774	160
0.5141478241	time interleaved
0.5141438487	type 1 fuzzy
0.5141240925	74
0.5141066701	key point
0.5140652049	based method
0.5140604664	substantially improve
0.5139574259	87
0.5139573507	sufficiently accurate
0.5139417122	sub bands
0.5139404190	97
0.5138749276	co operative
0.5138499010	accurate prediction
0.5138300443	control variables
0.5138170746	hybrid genetic
0.5137905810	180
0.5137670627	real world environments
0.5137606189	truly
0.5135953034	mixed integer programming model
0.5135911733	89
0.5135724805	relaying systems
0.5135335424	security problems
0.5134932594	translation task
0.5134909126	theoretical models
0.5134603309	negative effects
0.5134174786	700
0.5133938411	mimo broadcast
0.5133748660	digital resources
0.5133672410	analytic hierarchy
0.5133641077	frequency cepstral coefficients
0.5133514344	log n log
0.5133148112	core cpu
0.5133011283	service business
0.5132912566	bias and variance
0.5132291774	53
0.5131588712	based decision making
0.5131414665	collaborative web
0.5131219264	mapping scheme
0.5131070857	38
0.5130816813	device level
0.5130388972	sense of community
0.5130376531	deep brain
0.5130193436	n gram language
0.5129574259	71
0.5129574259	84
0.5129432333	simulation studies
0.5129098937	matching approach
0.5128519054	advanced technologies
0.5127790815	systems development
0.5127611034	digital to analog
0.5127558971	her
0.5126628848	long standing open
0.5126268922	video image
0.5126157828	previous papers
0.5126100868	transmission probability
0.5125970387	genetic algorithm approach
0.5125964594	frequency control
0.5125911733	81
0.5125911733	03
0.5125911733	61
0.5125791774	46
0.5125384176	graphs with bounded
0.5125336957	traffic data
0.5124979473	social systems
0.5124791774	250
0.5124528477	software environment
0.5123291774	91
0.5122944029	low signal to noise ratio
0.5122912566	teachers and students
0.5122834933	analytical results
0.5122291774	viz
0.5122291774	77
0.5122291774	58
0.5121741683	self adaptive systems
0.5121512996	time synchronization
0.5121230645	continuously changing
0.5120819419	predictive performance
0.5120743642	settling time
0.5120216344	106
0.5119657167	oriented modeling
0.5119651769	average improvement
0.5119404190	43
0.5118958441	67
0.5118768939	elliptic partial
0.5117968642	multi cluster
0.5117560326	background information
0.5116727845	fifth order
0.5116621549	multiplexing ofdm
0.5116592052	quality estimation
0.5116533369	process engineering
0.5116501546	communication performance
0.5116282324	crossover and mutation
0.5115911733	82
0.5115185480	self configuration
0.5115110858	user models
0.5114773910	analytical tools
0.5114326671	42
0.5114303749	convergence performance
0.5114186770	efficient detection
0.5114152638	simulation results demonstrate
0.5113648494	data collected
0.5113637843	51
0.5113094198	read and write
0.5112142209	robust fuzzy
0.5111979350	realistic scenarios
0.5111902059	800
0.5111684062	per cent
0.5111197447	04
0.5110429454	true random
0.5110002301	1994
0.5109796347	56
0.5109308138	potential benefits
0.5108958441	68
0.5108845655	main aspects
0.5108019333	uniform linear
0.5107848369	78
0.5107848369	94
0.5107848369	62
0.5107810467	theoretical and practical implications
0.5107673196	doesnt
0.5107513978	iterative design
0.5107492570	distributed energy
0.5107079430	field of view
0.5106463014	88
0.5106312450	service interface
0.5106055965	representation method
0.5105580732	segment based
0.5105472771	swarm based
0.5105148331	agent programming
0.5104530780	69
0.5104530780	10000
0.5104414128	quality model
0.5104300423	earlier works
0.5103909875	architecture framework
0.5103637843	52
0.5103637843	1993
0.5102833772	end to end path
0.5102342856	operating points
0.5102186697	channel models
0.5102039344	brain image
0.5101624428	web services technology
0.5101572691	protocol for wireless sensor networks
0.5101454877	non deterministic
0.5101373591	sub micron
0.5101277348	key challenges
0.5101197447	63
0.5101197447	73
0.5101197447	93
0.5100762738	1989
0.5100453857	512
0.5100348369	72
0.5099393142	numerical model
0.5099383282	switched network
0.5099345141	unique solution
0.5099120901	analysis of variance
0.5098778683	based classifiers
0.5098732162	simulation results reveal
0.5098493895	1988
0.5098381967	point selection
0.5098143665	inter and intra
0.5098090995	design rules
0.5098047258	adaptive clustering
0.5097848369	39
0.5097760448	kernel principal component
0.5097685814	110
0.5097627249	individual users
0.5097611126	group activities
0.5097262188	range image
0.5097188604	easily implemented
0.5097067355	security systems
0.5097033393	beforehand
0.5096486011	security scheme
0.5096463014	92
0.5096387187	pairing based
0.5095935274	international journal
0.5095880507	direct current
0.5095719341	web 20 applications
0.5095238744	network simulation
0.5095084825	conclude by discussing
0.5094804804	filtering scheme
0.5094585386	time hopping
0.5094189338	mechanical systems mems
0.5094098868	directional information
0.5094035998	increasing attention
0.5093910886	79
0.5093370193	user tests
0.5092987769	parameter vector
0.5092846320	key insight
0.5092655651	unlike conventional
0.5092262206	neural model
0.5092102504	dynamic behaviour
0.5092018737	qualitative evaluation
0.5091978663	signal to interference plus noise
0.5091965401	first order
0.5091592025	model based approaches
0.5091284337	something
0.5091284337	seriously
0.5091254176	neighborhood based
0.5091197447	125
0.5090691196	two tier
0.5090389494	linear mixed
0.5089957366	highly successful
0.5089654608	image information
0.5089343416	estimation algorithms
0.5088961585	physical models
0.5088826980	33
0.5088826980	26
0.5088804764	theoretical analyses
0.5088259001	iteration algorithm
0.5087848369	49
0.5087848369	120
0.5087685814	1991
0.5087427924	higher efficiency
0.5086882937	data retrieval
0.5086838040	data security
0.5086177947	sensed images
0.5086153314	project based
0.5085861988	distribution patterns
0.5085656137	robot interaction
0.5084880526	in vivo
0.5084738399	ensemble of classifiers
0.5084466099	area networks wlans
0.5083927282	agent system mas
0.5083415510	integration framework
0.5082299687	constrained devices
0.5082226980	01
0.5082102649	co existence
0.5081700539	ieee 80211 based
0.5081677495	store and forward
0.5081430747	gate arrays fpgas
0.5081083659	query based
0.5080996279	greatly benefit
0.5080535551	ie
0.5080102023	routing tree
0.5079826435	data mining based
0.5079501359	multi frequency
0.5079479516	construction process
0.5079309301	post process
0.5078826980	28
0.5078826980	1999
0.5078544861	cognitive process
0.5078087217	computational experiments
0.5078019852	information structure
0.5078007191	cpu implementation
0.5077877362	levels of granularity
0.5077692011	feature extraction techniques
0.5077336231	minimum required
0.5077120406	data packet
0.5076898322	framework supports
0.5076871676	significant improvement
0.5075768524	car following
0.5075669021	service infrastructure
0.5075611441	computational fluid
0.5075363850	adaptation mechanism
0.5074749615	access schemes
0.5074714752	vertical and horizontal
0.5074070430	83
0.5073932044	evolution model
0.5073908511	architectural features
0.5073824554	design problem
0.5073690982	hop transmission
0.5073576912	broadband networks
0.5073027877	parameters estimation
0.5072873572	interactive digital
0.5072503289	data sparseness
0.5071657104	first passage
0.5071536847	testing approach
0.5071446426	compare favorably
0.5071336296	modern graphics
0.5071299787	35
0.5070762738	59
0.5070762738	07
0.5070448659	class e
0.5070286960	algebraic structure
0.5070282648	core architecture
0.5070207182	600
0.5070201788	streaming model
0.5069847972	multiple classes
0.5069781698	significantly greater
0.5069683876	previous study
0.5068268108	point of care
0.5067797699	interactive application
0.5067436902	unique challenges
0.5067366754	sharing mechanism
0.5066937129	que
0.5066013313	experiment involving
0.5065958470	mobile context
0.5065322995	normal and abnormal
0.5065155573	task analysis
0.5064473269	efficiently solved
0.5064186170	follow up
0.5064024106	curves and surfaces
0.5063449645	secure multiparty
0.5063361440	geographic data
0.5063076732	directions for future research
0.5063070430	86
0.5062967263	adaptive robust
0.5062954094	an information theoretic approach
0.5062948003	ds cdma system
0.5062418097	tree node
0.5062254740	gets
0.5062113469	vector based
0.5062080262	connected graph g
0.5061909638	non negativity
0.5061787497	weight based
0.5061779620	infinite programming
0.5060664823	simulation approach
0.5060655342	1995
0.5060578041	existing works
0.5060548236	monte carlo algorithm
0.5060486825	geographic information system
0.5060322995	formal and informal
0.5060120240	watermarking algorithms
0.5060045485	effectively detect
0.5058297427	neural network algorithm
0.5058037049	audio and video
0.5057925982	computational load
0.5057602854	200
0.5057390946	harmonic mean
0.5057249549	code division multiple
0.5056659325	23
0.5056480415	number of active users
0.5056386979	smoothing method
0.5056281804	high impact
0.5056104584	output space
0.5056033393	06
0.5055865761	architecture description
0.5055842311	21 dimensional
0.5055369766	main steps
0.5055340627	radio systems
0.5055326438	coding tools
0.5055319384	number of citations
0.5054786018	basis function neural networks
0.5054528653	mean field
0.5054391945	wang et al
0.5053861681	multi object
0.5053503966	synthesis algorithm
0.5052584198	large collections
0.5052506769	support services
0.5052452698	dynamic task
0.5052243900	in silico
0.5052008579	learning design
0.5051250260	physical constraints
0.5050729626	network service
0.5050539602	channel matrix
0.5049413507	proposed scheme
0.5049376180	dynamic allocation
0.5049290239	hierarchical graph
0.5049169724	being
0.5048925423	web images
0.5048250345	entry point
0.5048125335	correctly identify
0.5047646797	knowledge network
0.5047168393	application areas
0.5046572389	microarray gene
0.5046527312	distributed collaborative
0.5046427844	design of experiments
0.5046228028	deterministic algorithms
0.5046214982	partial state
0.5046125318	paper considers
0.5046010568	noise conditions
0.5045952735	lower bound crlb
0.5045767157	fuzzy comprehensive
0.5045752115	specifically designed
0.5045577570	shall
0.5045049468	tool called
0.5044579176	point features
0.5044540587	supervised learning algorithms
0.5044537447	multi user virtual
0.5044526310	55
0.5044029219	average received
0.5044027653	theoretical findings
0.5043947857	horizontal and vertical
0.5043700933	distributed resources
0.5043670127	real objects
0.5043450202	a comparative study
0.5043106634	whereby
0.5042409426	fields of view
0.5042315839	point to point
0.5042258680	unknown parameter
0.5042007183	key element
0.5042002537	optimisation pso
0.5041877992	evolutionary methods
0.5041558716	multi agent model
0.5041382825	central nervous system
0.5041238380	transmission parameters
0.5040655342	150
0.5040403674	svm method
0.5039511735	measurement techniques
0.5039498293	conduct experiments
0.5039438715	either
0.5039320916	automatically extract
0.5038261736	clustering based
0.5038151999	34
0.5037288621	merely
0.5037070651	based localization
0.5036994165	alignment method
0.5036165265	physical model
0.5036032490	plant model
0.5035637249	hybrid adaptive
0.5035591269	heterogeneous mobile
0.5035142613	extracting features
0.5035049334	test selection
0.5034981649	non contiguous
0.5033598186	widely employed
0.5033544810	f x
0.5033325326	indexing and retrieval
0.5033129075	function space
0.5032933312	technical systems
0.5032667757	information theoretic approach
0.5032479771	ontology language owl
0.5032185750	paper addresses
0.5031587041	quality prediction
0.5031390188	optical depth
0.5031195940	efficient search
0.5031192977	48
0.5031007711	high speed network
0.5030890297	related fields
0.5030838148	2002
0.5030659175	existing tools
0.5030398223	network inference
0.5030167153	detailed discussion
0.5029964672	service networks
0.5029556257	area reduction
0.5029151999	31
0.5029151999	300
0.5028988395	dynamic response
0.5028546949	significantly faster
0.5028380477	85
0.5028234426	explicit construction
0.5028035724	converter adc
0.5026690043	interference plus noise
0.5026484357	process optimization
0.5026239116	coding performance
0.5026104795	optimal sensor
0.5026009396	co occurrence matrix
0.5025736252	end to end performance
0.5024737540	large scale deployment
0.5024668644	reduce power consumption
0.5024659325	22
0.5024312188	performance criteria
0.5024281224	web ontology
0.5023648123	quantum information
0.5023495417	science citation
0.5023106634	became
0.5022773648	game model
0.5022113470	local geometric
0.5021874239	de las
0.5021775512	design procedure
0.5021328927	multi state
0.5021304847	access methods
0.5021289193	model predicts
0.5020886404	recent papers
0.5020824368	16 bit
0.5020192169	concrete examples
0.5020049428	learning context
0.5019398251	dynamic equations
0.5019195483	theory of planned
0.5018930980	ubiquitous sensor
0.5018470570	graph algorithms
0.5018115880	prior works
0.5017954217	timing dependent
0.5017877923	received much attention
0.5017637576	semantic framework
0.5017426636	splitting methods
0.5016754836	physiological data
0.5016693650	cluster systems
0.5016647344	sample space
0.5016040450	source images
0.5015968385	processing steps
0.5015109698	pros and cons
0.5014729726	decomposition methods
0.5014513854	primary importance
0.5014181613	44
0.5014016186	pre and post
0.5013997036	retrieval tasks
0.5013870209	explicit expression
0.5013693193	spatial relationship
0.5013470128	two party
0.5012962815	extensive simulation results
0.5012343137	major concern
0.5012328418	tree classifier
0.5012098280	99
0.5011744308	semantic graph
0.5011697084	cognitive users
0.5011510197	input multiple output mimo
0.5011367856	large scale integration
0.5011103811	high speed wireless
0.5010750496	theory based
0.5010741525	remote user
0.5010121805	online detection
0.5009789895	file sharing systems
0.5009678987	previously studied
0.5009658615	copyright 2009 john wiley
0.5009548249	multiuser multiple input
0.5009303746	hybrid networks
0.5009006225	output signals
0.5008709511	highly connected
0.5008525382	data classification
0.5008465658	quantitatively evaluate
0.5007927836	thoroughly
0.5007735332	1998
0.5007428498	valuable insight
0.5006402877	confidentiality and integrity
0.5006191770	embedding space
0.5006030132	significant challenges
0.5005872731	mild conditions
0.5005322412	statistical static timing
0.5004934383	practical situations
0.5003959006	least square method
0.5003705196	wherein
0.5003305292	sense of presence
0.5003302574	final product
0.5003232137	code base
0.5003081960	coding techniques
0.5003026039	hardly
0.5002903811	highly competitive
0.5002557089	papers presented
0.5001552902	self dual
0.5001477080	rapidly increasing
0.5000925799	256
0.5000385284	imprecise data
0.5000310365	channel code
0.5000222672	data loss
0.4999492790	problems involving
0.4999066363	virtex 4
0.4998265042	parameter varying
0.4997690330	communication mechanisms
0.4996754605	labeling problem
0.4996296584	paper highlights
0.4995802403	increasingly complex
0.4995626198	support tools
0.4994698449	communication delay
0.4994070313	efficiency analysis
0.4993607051	time frequency
0.4993547118	commercial products
0.4993397659	adaptive scheduling
0.4992852678	g v e
0.4992395771	past experience
0.4992377923	study suggests
0.4991749375	n vertex graph
0.4991353634	technique called
0.4990800572	an ant colony optimization
0.4990698106	network testbed
0.4990170226	previous attempts
0.4989609410	distributed services
0.4989000761	engineering problems
0.4988453329	uml 20
0.4988449118	whole brain
0.4986471386	randomly assigned
0.4986221781	structured and unstructured
0.4986146755	limited battery
0.4986088894	who
0.4985750826	performance bound
0.4985749514	generalized linear
0.4985712296	dynamic data
0.4985705049	related works
0.4985652036	autism spectrum
0.4985476667	iterative scheme
0.4985443384	formal model
0.4985143500	fractional n
0.4985069265	fundamental challenge
0.4984649746	data structure called
0.4984135719	tool named
0.4982936269	small groups
0.4982764107	squares estimation
0.4982688651	hop wireless networks
0.4982676869	fully implemented
0.4982671410	mapping problem
0.4982114934	dynamic channel
0.4981797171	mesh size
0.4980823984	article i nfo
0.4980737289	pricing problem
0.4979984995	primary and secondary
0.4979677680	source domain
0.4979675452	computational requirements
0.4979220342	distributed stream
0.4978355187	simulation results verify
0.4977960354	limit theorem
0.4977925112	edge information
0.4977629474	transformation based
0.4977400782	computer scientists
0.4977335501	link network
0.4977161841	tool path
0.4977141387	quality of service
0.4976924053	fusion methods
0.4976387835	algorithm performs
0.4976175394	rotation and scaling
0.4976131918	non determinism
0.4976010568	processing tasks
0.4975922194	observed behavior
0.4975823008	generalized fuzzy
0.4975188043	cognitive models
0.4975147535	least squares estimation
0.4974978262	infinite family
0.4974545843	measurement unit
0.4974408754	smaller size
0.4974044892	explosive growth
0.4973837392	control functions
0.4973699806	modular neural
0.4973496909	mum cmos technology
0.4973188481	context model
0.4972726879	non dominated
0.4972518552	factor model
0.4972249192	global market
0.4972210724	highly relevant
0.4971785367	constrained quadratic
0.4971604062	real case
0.4971274472	originally developed
0.4971213687	recently proposed
0.4970788646	sequence data
0.4970395327	synchronization algorithm
0.4970386854	control actions
0.4970126067	hardware support
0.4970096286	interaction model
0.4970071098	clock speed
0.4970019132	minimal overhead
0.4969897259	real user
0.4969894535	memory systems
0.4969343427	recommendation algorithm
0.4968654729	supply and demand
0.4968385834	social information
0.4968278398	never
0.4967967841	power and thermal
0.4967567613	time delay
0.4966885466	digital control
0.4965945770	distributed sensor
0.4965712404	neuro fuzzy system
0.4965584121	algorithm computes
0.4965156931	naive approach
0.4965119311	distinguishing features
0.4964873928	workflow design
0.4964872587	had
0.4964522798	processor performance
0.4964517361	fusion framework
0.4964287561	end to end communication
0.4964215967	test application time
0.4964094950	substantially reduced
0.4963822853	communication platform
0.4963810067	examples include
0.4963577645	early stages
0.4963424041	findings reveal
0.4963417670	flow model
0.4962650960	programming techniques
0.4962285674	general linear
0.4961571270	reliability requirements
0.4961078653	satisfactory solution
0.4960166352	video surveillance system
0.4960024956	automatic detection
0.4959882053	channel states
0.4959394653	second derivative
0.4958680212	result shows
0.4958135970	network storage
0.4958129411	analysis methodology
0.4957916876	significantly correlated
0.4957571598	formal method
0.4957052951	highly effective
0.4956657938	experimental results showed
0.4956551667	exchange protocol
0.4956030857	previous efforts
0.4955976194	answer questions
0.4955766964	significant advances
0.4955314535	heuristic rules
0.4955208442	network failures
0.4955166350	fuzzy linear
0.4955045574	recognition framework
0.4954870566	using artificial neural networks
0.4954761564	de datos
0.4954293107	voice and video
0.4953277229	query response
0.4953142399	function pdf
0.4952939092	important role
0.4952511621	kernel space
0.4951852611	3d qsar
0.4951523842	an artificial neural network ann
0.4951112549	empirical results
0.4950430125	fig 1
0.4949540969	next generation wireless
0.4949371507	optimal energy
0.4949346858	test result
0.4949004981	interaction network
0.4948895090	adaptive behavior
0.4948695763	design and verification
0.4948671011	process quality
0.4948240903	direct and indirect
0.4948187116	recent researches
0.4946974759	theoretical basis
0.4946777584	average rate
0.4946458278	systems employing
0.4946328380	error estimate
0.4946303626	best practices
0.4946293010	authentication systems
0.4946159836	back off
0.4946115542	requirements management
0.4945815641	extensive simulation experiments
0.4944570045	three tier
0.4944346019	standard model
0.4944291939	basic ideas
0.4944230023	p np
0.4943887149	memory technology
0.4943522478	of interest roi
0.4943373917	shafer theory
0.4943159745	autonomous underwater
0.4942975848	access control mac protocol
0.4942231351	fully utilize
0.4941769316	generation sequencing
0.4941329703	key findings
0.4941264747	finite and infinite
0.4941126096	bounded domain
0.4940024645	attracted considerable
0.4939677897	top k queries
0.4939579910	management service
0.4939545223	regularization method
0.4939452848	recognition algorithm
0.4939412377	14
0.4938460044	virtual computing
0.4938223099	probability model
0.4937824192	heuristic method
0.4937492747	video communication
0.4936974623	synchronous and asynchronous
0.4936913288	accurately detect
0.4936746399	frequency channels
0.4936191298	robotic applications
0.4935478240	13
0.4935145163	experiment results demonstrate
0.4934608371	significantly increases
0.4934310282	image plane
0.4933934498	morphological features
0.4933740941	performance overhead
0.4933083956	algorithmic approach
0.4933069054	transmitter and receiver
0.4932679834	coverage based
0.4932451241	auditory and visual
0.4931710949	environmental data
0.4931509558	interactive video
0.4931331347	strong evidence
0.4931260852	almost periodic
0.4931091943	result implies
0.4931057996	received little attention
0.4930413396	transmit and receive
0.4929885301	problem arises
0.4929638529	flow velocity
0.4929307505	source and relay
0.4928836549	significant gains
0.4928670613	re encryption
0.4928651421	substantially improves
0.4927970616	previously developed
0.4927834023	data flows
0.4927817172	experience gained
0.4927753032	efficient simulation
0.4927483683	limited resources
0.4927273821	electronic systems
0.4926794037	feedback path
0.4926516114	sufficiently high
0.4926186905	an xml based
0.4926023331	access channel
0.4926020027	local stability
0.4925012920	second price
0.4924719574	framework called
0.4923885133	mean squared
0.4923737140	is
0.4923434570	space time
0.4922945738	data repositories
0.4922058554	image segmentation algorithm
0.4922023406	positive impact
0.4921991478	limited power
0.4921120530	self protection
0.4920545940	achieves higher
0.4919539592	empirically evaluate
0.4919347051	normal operation
0.4918575442	full chip
0.4918379497	recently gained
0.4918229427	register transfer
0.4917833004	hard to approximate
0.4917723226	communication topology
0.4917678793	all optical
0.4917402377	significant advantages
0.4917373547	peak signal to noise
0.4917054932	s t
0.4916807660	lyapunov method
0.4916644379	specific requirements
0.4916635333	increasing importance
0.4916539233	using particle swarm optimization
0.4916468950	originally proposed
0.4915446109	on chip
0.4915074408	learning technologies
0.4915000957	an evolutionary algorithm
0.4913964831	learning tool
0.4913754553	service interfaces
0.4913424814	effectively improve
0.4913410855	based recommender
0.4913313630	high performance computing systems
0.4912854641	p cycles
0.4912564260	main concepts
0.4912312221	learning agents
0.4912206910	high level design
0.4911443383	an information theoretic
0.4911442249	distributed algorithm
0.4910813055	satisfactory performance
0.4910438349	real world situations
0.4910144814	i v
0.4910032992	aggregation scheme
0.4909864964	higher frequency
0.4909754537	linear time algorithms
0.4909536158	three stage
0.4909191691	back propagation algorithm
0.4909024212	11
0.4908907659	frame error
0.4908700182	searching process
0.4907884158	fine grained access
0.4906605548	stability and stabilization
0.4906158992	production environment
0.4905991223	linear classifier
0.4905643808	quantitative measures
0.4905547732	themselves
0.4905011247	pattern recognition problems
0.4904979620	strong influence
0.4904806116	robust video
0.4904629084	co regulated
0.4904400416	achieve higher
0.4904084789	automatically classify
0.4903961745	level simulator
0.4903633011	non intrusive
0.4903249551	co channel
0.4902652214	java application
0.4902516997	co evolution
0.4902076014	conceptually simple
0.4901964913	significantly enhances
0.4900892903	main stages
0.4900867758	noise analysis
0.4900269871	wiley periodicals inc networks 2009
0.4900254209	error model
0.4899331463	level cache
0.4898747085	promising results
0.4898383449	highly variable
0.4897649669	challenges and opportunities
0.4897350516	test functions
0.4896294210	class d
0.4896232533	private and public
0.4895012669	similar patterns
0.4894722423	standard benchmarks
0.4894562616	biological models
0.4893964334	rapid deployment
0.4893176113	calibration algorithm
0.4893133108	large scale software
0.4892724389	single task
0.4892010773	ns 2 simulations
0.4891924017	non redundant
0.4891865299	user testing
0.4891836905	emitting diode
0.4891479133	knowledge structure
0.4891043636	research platform
0.4891030156	national laboratory
0.4890834983	self regulated
0.4890761834	application scenario
0.4890598895	time domain
0.4890383235	complex data
0.4890339360	theoretical analysis shows
0.4890227108	users privacy
0.4889945620	great challenges
0.4889906251	optimal input
0.4889582510	practical significance
0.4889039536	interference ratio
0.4887339556	parallel code
0.4886002662	connected network
0.4885815987	simple linear
0.4885495481	business application
0.4884674695	heterogeneous sensor
0.4884603913	modelling techniques
0.4884187698	was
0.4884187698	has
0.4883518021	data path
0.4883135150	transmission strategy
0.4882412566	visual and auditory
0.4881958591	structure information
0.4881709772	strong and weak
0.4881516159	initial results
0.4881249296	critical issues
0.4881148322	maximum ratio
0.4880308752	scan design
0.4880054612	machine learning based
0.4879848472	imaging mri
0.4879137763	control parameters
0.4878912442	layer protocol
0.4878517988	captured images
0.4878321807	efficient retrieval
0.4878131732	log2 n
0.4878114417	immune system
0.4877228321	analytic model
0.4877026225	achievable performance
0.4876846291	their
0.4876824471	line based
0.4876106577	technology development
0.4875818402	error function
0.4875579701	computing with words
0.4875548229	might
0.4875548229	itself
0.4875388283	training based
0.4875053788	preliminary experimental results
0.4875007056	state equation
0.4874891616	confidentiality integrity
0.4874867125	major contribution
0.4874668319	key elements
0.4874303646	data parallel
0.4874027937	linear matrix
0.4873824674	real time communication
0.4873570042	input image
0.4873149236	software platforms
0.4872876494	parity check ldpc codes
0.4872700933	time multiplexed
0.4872265086	can
0.4872189178	intrinsic characteristics
0.4871951132	image sharing
0.4871605600	local learning
0.4871550120	clinical applications
0.4871314149	rotation and translation
0.4871209526	count data
0.4870826654	source to destination
0.4870782060	experimental results reveal
0.4870763282	real hardware
0.4869843136	formal approach
0.4869709167	rf power
0.4869600399	control module
0.4869586292	game industry
0.4868931779	asymptotic properties
0.4868481465	share knowledge
0.4867991857	asymptotic results
0.4867929521	uniformly at random
0.4867696027	experiment shows
0.4867387249	automated software
0.4867211680	c elegans
0.4866743458	cache design
0.4866719372	strongly dependent
0.4865949926	service network
0.4865882330	would
0.4865325853	graph models
0.4865281461	data formats
0.4865013484	ieee 80211 standard
0.4864509300	data partitioning
0.4864334536	imaging applications
0.4863804813	production control
0.4863691312	depth of field
0.4863579055	l valued
0.4862963640	decomposition algorithms
0.4862677006	communication service
0.4862333943	them
0.4862333943	have
0.4862333943	cannot
0.4862333943	which
0.4862333943	been
0.4862333943	were
0.4862333943	are
0.4862114621	result set
0.4862047373	efficient algorithms
0.4861560031	sojourn time
0.4861124547	finding relevant
0.4859964444	features extraction
0.4859322101	current research
0.4859148990	counter example
0.4859030863	effectively reduces
0.4859005888	high level programming
0.4858665429	main objective
0.4858216536	vehicular ad hoc
0.4857995236	convex problem
0.4857539698	critical components
0.4857447645	care unit
0.4857015617	be
0.4856795666	personalized service
0.4855955548	distributed learning
0.4855918738	density parity check
0.4855882330	whose
0.4855882330	will
0.4855882330	could
0.4855833946	et als scheme
0.4855802857	fundamental properties
0.4855632022	arbitrary input
0.4855482848	a holistic approach
0.4854757500	technical challenge
0.4854556744	over rayleigh fading channels
0.4854361864	robust exponential
0.4854293107	audio and visual
0.4854073759	fuzzy approach
0.4853940859	should
0.4853635333	design strategies
0.4853536210	expert system
0.4853369597	automatically discover
0.4853092759	control group
0.4852837429	interleaved coded
0.4852793756	paper reviews
0.4852524187	self adjusting
0.4851888804	registration methods
0.4851841234	study reveals
0.4851536855	must
0.4851431463	that
0.4851379280	ontology based approach
0.4851283274	management processes
0.4850754581	research methods
0.4850000474	reduction scheme
0.4849570305	increasingly popular
0.4849456026	combination methods
0.4848880284	spectral image
0.4848699221	of oriented gradients
0.4848429229	input single output
0.4848217877	basic concepts
0.4848049579	value added
0.4847105729	network scenarios
0.4846751370	communication device
0.4846440859	where
0.4846361020	comprehensive view
0.4845795970	error covariance
0.4845422034	application requirements
0.4845162764	uniform traffic
0.4845040129	based learning environment
0.4844293079	optimisation algorithm
0.4844153719	error patterns
0.4843919664	numerical and simulation results
0.4843815041	design parameters
0.4843466537	artificial systems
0.4842940548	equilibrium problems
0.4842316888	statistically independent
0.4842182960	numerical calculations
0.4841900786	quality of life
0.4841664246	learning management system
0.4841626795	space applications
0.4841359840	online algorithm
0.4840987794	units gpus
0.4840832700	real environments
0.4840578707	feature types
0.4840084699	tracking problem
0.4839986850	valued fuzzy
0.4839666327	in vitro
0.4839253267	diffusion models
0.4838955870	target image
0.4838733086	ofdm system
0.4838653915	widely applied
0.4838515248	decoding scheme
0.4838266814	vector representation
0.4838121965	large scale image
0.4838038955	qos control
0.4837819541	algorithms outperform
0.4837760700	key parameters
0.4837356395	time delays
0.4837201056	network delay
0.4836731856	significant benefits
0.4836541140	query image
0.4836482461	nm technology
0.4836233962	lp based
0.4836018415	protocol design
0.4835966360	semantic structure
0.4835733659	behavior patterns
0.4834989116	delay and jitter
0.4834794892	helping users
0.4834695739	satisfactory results
0.4834637325	semantic models
0.4834153035	global network
0.4833699075	evolutionary learning
0.4833597163	c means clustering
0.4832917150	k means algorithm
0.4832844473	data gathered
0.4832252508	non linearities
0.4831609061	fundamental role
0.4831510890	primary focus
0.4831235723	previous paper
0.4831218431	major components
0.4831095535	humans and robots
0.4830893647	camera mounted
0.4830696334	efficient solutions
0.4830677363	clustering process
0.4830598900	line of sight nlos
0.4829958696	document set
0.4828634594	heuristic solutions
0.4828604490	polynomial time
0.4828126695	key question
0.4828101889	spectrum estimation
0.4828068418	increased significantly
0.4827657653	et als
0.4827040721	traditional approaches
0.4826876937	synthetic and real data sets
0.4826748348	utilization efficiency
0.4826274501	field theory
0.4826198280	explicit and implicit
0.4825504468	critical success
0.4825317476	user population
0.4825253792	minimal energy
0.4824734314	user characteristics
0.4824259081	svm algorithm
0.4823359466	accuracy rate
0.4823216297	speech recognition system
0.4822458552	alignment methods
0.4821900269	d s
0.4821530294	propagation neural network
0.4821493768	matching process
0.4821122875	engineering systems
0.4820892720	model fitting
0.4820700093	general theory
0.4820237582	instance learning
0.4820121239	support functions
0.4818603456	related technologies
0.4818051453	dc power
0.4817736697	working prototype
0.4817408046	look up
0.4817398092	transmission network
0.4816932286	real space
0.4816324290	sending and receiving
0.4815735775	existing techniques
0.4815528111	efficient compression
0.4815400356	number of wavelengths
0.4814669153	real life applications
0.4814661684	potentially lead
0.4814632992	previous methods
0.4814332558	learning models
0.4813629688	detection capabilities
0.4813453145	surface models
0.4811119691	tracing algorithm
0.4810825177	valuable information
0.4810260646	may
0.4809845362	time petri nets
0.4809684445	efficient implementations
0.4809271826	selected features
0.4808453550	quantitative assessment
0.4807826338	co design
0.4807377209	scales linearly
0.4807336613	authorized users
0.4806950065	network density
0.4806580658	model generation
0.4806192154	computational demands
0.4805908465	superior temporal
0.4805866991	analysis shows
0.4804806741	experiments showed
0.4804378199	pure nash
0.4803172040	de los
0.4802372682	3d ics
0.4802272533	ill posed problem
0.4802091945	spatial features
0.4801580892	mapping process
0.4801198479	taking into consideration
0.4800910950	cr systems
0.4800685687	self organizing systems
0.4800635334	binary data
0.4799737889	design technique
0.4799288017	proof of concept
0.4799256454	basic properties
0.4798571148	distributed parameter
0.4797927767	image size
0.4797621689	extensive simulation
0.4797409808	information measures
0.4797166495	syntactic and semantic
0.4796783094	visual sensor
0.4796295560	assistance systems
0.4796036537	filtering cf
0.4795552278	common practice
0.4795503437	missing information
0.4795475901	temporal behavior
0.4795367521	individual components
0.4795197081	mapping function
0.4795068370	case analysis
0.4795027353	effectively manage
0.4794965452	attribute value
0.4794902079	performance ratio
0.4794139293	discovery algorithms
0.4793804478	open data
0.4793675070	interval data
0.4793599235	data bases
0.4793578080	local energy
0.4793265058	non oscillatory
0.4792815870	gate array fpga
0.4792442212	training image
0.4792267139	fast algorithm
0.4792235187	numerical examples illustrate
0.4791858399	mining approach
0.4790180098	cosine transform dct
0.4789980222	flow simulation
0.4789854456	proposed algorithm
0.4789641442	two tiered
0.4789221499	simulation speed
0.4788758833	real time tracking
0.4788652973	performance testing
0.4788176523	processing cost
0.4787577257	medium enterprises
0.4787466997	research in progress
0.4787361874	feedforward neural
0.4787359813	model comparison
0.4786862037	close relationship
0.4786433234	successfully applied
0.4786205455	heterogeneous information
0.4785462455	analytical and simulation results
0.4785094948	decision level
0.4784924695	distributed object
0.4784549001	kinematics and dynamics
0.4784530105	derive closed form
0.4784119252	retrieval algorithm
0.4784079381	hard and soft
0.4783866967	multiple output mimo channels
0.4783571121	equal power
0.4783325371	bayes classifiers
0.4783309928	computing research
0.4782968588	an fpga based
0.4782858199	physical parameters
0.4782713886	efficient coding
0.4782475326	objective measures
0.4782231752	calibration process
0.4781796133	forward and reverse
0.4781768448	significantly decreases
0.4781274687	spatially and temporally
0.4781114465	efficient construction
0.4780835151	key contribution
0.4780586189	management tool
0.4780524196	start up
0.4780458511	on chip memory
0.4780111561	grid and cloud
0.4779996951	process based
0.4779869271	applications require
0.4779107853	common cause
0.4779032652	computation times
0.4778028755	complex environment
0.4777806103	soundness and completeness
0.4777662554	significantly affects
0.4777394452	data refinement
0.4777372035	a machine learning approach
0.4777060885	space based
0.4776940585	successfully implemented
0.4776580155	domain name
0.4775815819	t s
0.4775344390	top ranked
0.4775179636	sensor and actuator
0.4775167016	development methodologies
0.4775103523	mathematical tool
0.4774882140	multi radio wireless
0.4774802698	theoretical results
0.4774387824	comparison shows
0.4773938182	underlying physical
0.4773667540	message based
0.4773483435	quality of service qos constraints
0.4772788025	coverage and connectivity
0.4772506598	analytical tool
0.4772360450	single radio
0.4772197092	management solution
0.4771852120	sar systems
0.4771449729	collecting data
0.4771187184	step by step
0.4770043618	non homogeneous
0.4769486848	free languages
0.4769449153	communicate directly
0.4769301463	positive or negative
0.4768950315	design problems
0.4768929758	based statistical machine translation
0.4767994376	vector optimization
0.4767881510	source software
0.4767159801	standard cmos
0.4767110674	user perspective
0.4767099890	geometric information
0.4766769777	practical relevance
0.4766558663	recognition problem
0.4766173111	structural changes
0.4766136790	complete picture
0.4765552201	conserve energy
0.4764709280	third generation
0.4764597270	temporal structure
0.4764560910	open and closed
0.4764430758	meaningful information
0.4764161562	process analysis
0.4764054826	available bandwidth
0.4763881727	considerable reduction
0.4763736330	reliable information
0.4763713599	communities of practice
0.4763627801	identification rfid
0.4763305801	computer game
0.4762950557	linguistic data
0.4762877904	stable state
0.4762800953	weighted combination
0.4762760709	highly complex
0.4762700285	multi robot system
0.4762025687	l 1 norm
0.4761518532	input power
0.4761467118	type systems
0.4761459558	information space
0.4761406997	control units
0.4761296941	structure analysis
0.4760864496	network coding based
0.4760785170	pen and paper
0.4760715915	active shape
0.4760080064	recently introduced
0.4759690992	specific domain
0.4759584362	cost models
0.4759338451	human like
0.4758689678	low error
0.4758235939	haar like
0.4758232268	interesting properties
0.4758033255	visual images
0.4757632634	let f
0.4757277022	mode operation
0.4756642771	iterative optimization
0.4756530909	service framework
0.4756499948	dual tree complex
0.4756293123	analysis revealed
0.4756198280	throughput and fairness
0.4756134912	iteration method
0.4755323635	simulated data
0.4754718974	conventional methods
0.4754678067	baseline method
0.4754225785	model validation
0.4753763850	lower power
0.4753426160	human cognitive
0.4753345489	just in time
0.4753278743	belief network
0.4752951651	communications technologies
0.4751999385	evolutionary information
0.4751971324	very large scale
0.4751718431	challenging task
0.4751626558	basic model
0.4751400773	large data
0.4751052380	critical task
0.4750807536	sense of touch
0.4750791307	based machine learning
0.4750566535	throughput optimal
0.4750263238	multiple threads
0.4750149835	ofdm channel
0.4749305621	balancing problem
0.4747572022	computational resource
0.4746784337	in situ
0.4746443476	easy implementation
0.4746392168	task completion time
0.4745987919	voltage and frequency
0.4745899428	takes into consideration
0.4745764036	time slots
0.4744503811	almost sure
0.4743686692	retrieval systems
0.4743538095	control methods
0.4742677181	simulation experiment
0.4742346205	algorithm produces
0.4742107875	noise power
0.4742097049	decision making approach
0.4742079586	government information
0.4741869180	data acquired
0.4741591097	input to state
0.4741529603	communication architectures
0.4741265116	context models
0.4741121037	neighborhood structure
0.4740978221	host image
0.4740243729	bandwidth resources
0.4739531614	online and offline
0.4739442406	high throughput data
0.4739353784	synthetic and real datasets
0.4739212335	distributed sensors
0.4739108755	protocol achieves
0.4738896647	real time applications
0.4738784205	empirically tested
0.4738702094	sensor information
0.4738400798	ontology language
0.4738232005	potential impact
0.4737998834	automatic design
0.4737843226	image processing methods
0.4736578089	significantly reducing
0.4736559808	index based
0.4736468551	public and private
0.4736262131	property based
0.4736002692	035 mum
0.4735702124	software models
0.4735219463	language based
0.4735044732	multiple output mimo systems
0.4734600030	total area
0.4734336637	increased attention
0.4733765005	tree networks
0.4732807680	10 gbs
0.4732484357	simulation and experimental results
0.4732405840	current position
0.4732232565	prior studies
0.4732014588	design principle
0.4731860469	cellular neural
0.4731627228	searching algorithm
0.4731594803	automatically extracts
0.4731527484	hardware performance
0.4731162975	click through
0.4731118904	analytical method
0.4731043875	major goal
0.4730787335	a preliminary study
0.4730697799	key infrastructure
0.4730694047	projection algorithm
0.4730669246	precision rate
0.4729744327	reconstruction process
0.4728222270	young people
0.4727138416	future studies
0.4727003517	previous literature
0.4726737108	decoder side
0.4726223747	previously introduced
0.4725903466	automatic evaluation
0.4725879525	design approaches
0.4725741371	digital communication
0.4725322450	supervised and unsupervised
0.4725009050	holistic approach
0.4724807294	swarm optimizer
0.4724595520	mining association
0.4724497637	computer animation
0.4724482886	real time simulation
0.4724450876	conventional approaches
0.4724138519	trial and error
0.4724001458	user search
0.4723851319	application logic
0.4723624448	significant overhead
0.4723192583	regression techniques
0.4721624440	main idea
0.4720798047	per flow
0.4720702690	co evolutionary
0.4720268643	multiple output
0.4720001334	shape and appearance
0.4719622853	statistical method
0.4719525773	approach outperforms
0.4719465405	multimedia learning
0.4719438391	8 bit
0.4719158760	qualitatively and quantitatively
0.4718720647	analysis reveals
0.4718720587	result suggests
0.4718624307	analysis technique
0.4718444471	anywhere anytime
0.4718301463	inputs and outputs
0.4718293931	dead time
0.4718263164	slightly higher
0.4718068871	c programs
0.4717710190	cycles of length
0.4717559968	time frequency analysis
0.4717024877	methods fail
0.4716931000	signal to noise
0.4716820467	integration technology
0.4716768930	objective problems
0.4716032085	second generation
0.4716013338	driven architecture
0.4715922017	translation and rotation
0.4715819685	based methods
0.4715776520	current approaches
0.4715706535	architecture soa
0.4715141879	forward model
0.4715125328	search methods
0.4714042107	flow estimation
0.4713583539	end systems
0.4712692387	adaptive mechanism
0.4712283943	counting method
0.4712175178	planning and control
0.4711546434	circuit performance
0.4710988602	strong sense
0.4710972011	simulations confirm
0.4710738151	simple yet powerful
0.4710722718	click through data
0.4710159827	service processes
0.4710095909	recent efforts
0.4709483444	group structure
0.4708908725	combination method
0.4707863542	a cross layer approach
0.4707243773	paramount importance
0.4707017132	significant reductions
0.4706752746	optimal linear
0.4706307691	recently reported
0.4705482015	stuck at
0.4705152883	an empirical comparison
0.4704981408	reference images
0.4704954059	sensing technique
0.4703777787	design research
0.4703717113	emerging field
0.4703626019	optimal transmission
0.4703239054	fitting algorithm
0.4702861915	partitioning problem
0.4702462192	composition process
0.4702142220	recently developed
0.4701681578	data embedding
0.4700810308	identification rate
0.4700778705	significantly smaller
0.4700367343	localization in wireless sensor networks
0.4699844950	extensively investigated
0.4699571314	interpolation technique
0.4699332421	constraints imposed
0.4699163206	unified model
0.4697355653	right hand
0.4697075359	industry and academia
0.4696484960	logical structure
0.4696235490	distributed virtual
0.4696174237	possible worlds
0.4696039010	experimentally tested
0.4695211437	detection stage
0.4695159291	design and fabrication
0.4694212312	domain concepts
0.4693382999	positive integer k
0.4693220204	execution model
0.4692900099	number of hops
0.4692182096	control objective
0.4691793844	positive and negative
0.4691205031	feasible region
0.4690991022	full search
0.4690642194	major factor
0.4690607035	non verbal
0.4690446425	ongoing project
0.4689938209	source separation bss
0.4689749824	shape and motion
0.4689227007	optimal selection
0.4689060352	received video
0.4688991265	solution approach
0.4688630596	paper explains
0.4687701081	direct effect
0.4687065973	core networks
0.4686690447	fast algorithms
0.4686493985	development costs
0.4686486385	method named
0.4686260450	80211 wlans
0.4686051495	twenty years
0.4685810432	compact set
0.4685463655	third order
0.4684765426	level of abstraction
0.4684284400	analysis attacks
0.4684191430	underlying distribution
0.4684013713	requirements models
0.4683758878	geometric objects
0.4683386292	classification approaches
0.4683350846	join and leave
0.4682780387	planning approach
0.4682475790	large delay
0.4681449359	table based
0.4680915158	global image
0.4680652199	amplitude and phase
0.4680244956	measurement data
0.4680100841	case scenario
0.4679302264	search techniques
0.4679149741	binary integer
0.4679095806	white gaussian noise awgn
0.4679092136	intrinsic structure
0.4678291352	pilot based
0.4678249831	improved fuzzy
0.4678124989	behavior model
0.4676907870	squares ls
0.4676584048	performance degrades
0.4676036688	benchmark test
0.4675640299	dynamic binary
0.4675351551	significant effects
0.4675338567	mesh network wmn
0.4675129008	recent trend
0.4672965085	development tools
0.4672458711	inherent complexity
0.4671748192	maximization em algorithm
0.4671109473	online optimization
0.4670872207	if g
0.4670426651	data volumes
0.4670382334	noise and outliers
0.4670361870	greatly enhanced
0.4670237487	object features
0.4670096302	l 2 norm
0.4670048282	commercial applications
0.4669718090	linear network
0.4669381905	large scale computing
0.4668180249	cluster nodes
0.4667642212	stringent requirements
0.4667211818	identification process
0.4666965124	trapped in local
0.4666356547	pairs of nodes
0.4665938032	k th
0.4665896881	programming course
0.4664923949	structural parameters
0.4664396334	global software
0.4664357175	parallel efficiency
0.4663083690	efficiently utilize
0.4662583843	orthogonal space
0.4662302921	shape and texture
0.4662088838	prediction algorithm
0.4661452020	correlation model
0.4661126679	increasingly difficult
0.4660718694	shows promise
0.4660430833	total completion time
0.4660033509	sufficient accuracy
0.4659838191	key components
0.4658471425	e learning environments
0.4658151446	delay based
0.4657987754	practical importance
0.4657663158	basic idea
0.4657555387	scheme called
0.4657468521	academia and industry
0.4657347292	local state
0.4656846006	side effect
0.4656702152	flexible framework
0.4656685285	iterated local
0.4656682364	planning phase
0.4656518352	hierarchical models
0.4655744571	best fit
0.4655698794	lines of code
0.4655698419	learning machine
0.4655675937	placement and routing
0.4654663363	increased complexity
0.4654638319	valuable resource
0.4654522632	price based
0.4653701671	key observation
0.4653564945	common language
0.4653093663	data traffic
0.4652053557	protection uep
0.4652027203	sensing in cognitive radio
0.4651438896	if then rules
0.4651386327	3d stacked
0.4650635569	exploratory study
0.4650457604	non native
0.4650199174	self complementary
0.4650064527	levels of abstraction
0.4649949053	acquired data
0.4649665229	test method
0.4649416948	stability theory
0.4649390581	evolution algorithm
0.4649028883	existing literature
0.4649018497	non monotonic
0.4648944327	oriented modelling
0.4648716930	transmission performance
0.4648157754	performance benefits
0.4648157075	computational experience
0.4647763356	self reconfiguration
0.4647403136	gis data
0.4647190556	based software engineering
0.4647179176	completion time
0.4647026404	motion capture system
0.4645917820	geometric structure
0.4645567979	security and privacy
0.4644771166	potential functions
0.4644749741	engineering applications
0.4643928411	multiple simultaneous
0.4643850025	discovery and composition
0.4643344859	real time strategy
0.4643296646	traditional chinese
0.4643264793	computational problems
0.4643259968	fast communication
0.4642934471	sequential data
0.4642922172	smallest number
0.4642673907	main components
0.4642398667	experiments conducted
0.4641595268	strengths and weaknesses
0.4640264685	fuzzy preference
0.4640019012	diversity analysis
0.4639640856	constrained scheduling
0.4639452610	increasing complexity
0.4639183378	number of retransmissions
0.4638783168	main advantage
0.4637763996	redundant information
0.4637761419	efficient query
0.4637204677	previously suggested
0.4637121466	shared knowledge
0.4636965521	performance bottleneck
0.4636716558	computer simulation
0.4635710131	direct approach
0.4635429900	spectral method
0.4634854370	truth value
0.4634754777	paper aims to investigate
0.4634086187	small number
0.4634060416	network evolution
0.4633405562	area network
0.4632424761	target domain
0.4632325840	rate of return
0.4632168933	distribution problem
0.4632151382	experimental findings
0.4631845995	localization systems
0.4631830136	significantly enhance
0.4630401188	linguistic analysis
0.4630167727	non negative matrix
0.4629571110	multiple heterogeneous
0.4629184428	similar objects
0.4628320605	a hybrid approach
0.4628237932	index modulation
0.4627107632	model management
0.4627067237	network control
0.4626594254	selection technique
0.4625679618	dense linear
0.4624570453	business activities
0.4624542508	k ary
0.4624451393	extracted features
0.4622336685	three axis
0.4621947768	link performance
0.4621918702	learning task
0.4621884575	spiking neural p
0.4621789562	automatically detect
0.4620589045	body part
0.4619962491	mean absolute
0.4619665590	non volatile
0.4619544184	position and velocity
0.4619110165	angular resolution
0.4619075825	discriminative model
0.4618753679	inc random struct alg 2009
0.4617927679	code based
0.4617675937	active and passive
0.4617060482	simulation result shows
0.4617027971	local image
0.4616989034	physical systems
0.4616738017	global solutions
0.4616222240	interactive image
0.4615638373	correct operation
0.4615585370	geographical data
0.4615129896	routing and scheduling
0.4615075675	set size
0.4615068762	search problems
0.4614812897	training procedure
0.4614809037	network operations
0.4614679758	behavior models
0.4614672571	hybrid particle
0.4614522982	management model
0.4614241421	based publishsubscribe
0.4613547273	increases linearly
0.4613323872	learning tasks
0.4613142155	distributed protocol
0.4613022526	element method
0.4612577916	article addresses
0.4611998703	using support vector machines
0.4611883320	existing solutions
0.4611877346	distance information
0.4611052155	experiments confirm
0.4610673559	surveillance system
0.4610616700	hybrid learning
0.4609819479	data dependency
0.4609264875	beliefs about
0.4608867693	data broadcast
0.4608831099	accurate measurement
0.4608753604	industrial process
0.4608706812	local control
0.4608705775	cut set
0.4607804930	platform based
0.4607396684	based framework
0.4607269811	resource description
0.4607246643	dynamic aspects
0.4607231128	use case
0.4605177580	design goals
0.4605170693	difference scheme
0.4605089374	application services
0.4604890497	media applications
0.4604344324	condition based
0.4604165455	parallel algorithm
0.4603324109	observation model
0.4603304090	cdma system
0.4603068505	cache performance
0.4602327535	clustering framework
0.4602195347	personal knowledge
0.4601481979	bam neural
0.4600991638	optimal paths
0.4599985919	f 0
0.4599489551	wireless mobile ad hoc
0.4599237619	ground set
0.4599175212	figure 1
0.4598907500	engineering methods
0.4598234344	multi processor system on
0.4597617818	performance modelling
0.4597571742	command and control
0.4597388979	multiple interfaces
0.4597382254	convergence results
0.4597028335	manufacturing system
0.4596669492	adaptive local
0.4596569664	based image retrieval cbir
0.4596224322	input multi output
0.4596017152	underlying infrastructure
0.4595459001	diagnosis algorithm
0.4595184362	hiding scheme
0.4595168637	a game theoretic
0.4595093527	indoor and outdoor
0.4594549642	additional hardware
0.4594089458	multiple features
0.4593871906	simulation data
0.4593303898	specification based
0.4593223372	optimal resource
0.4592829008	security features
0.4592797618	no reference
0.4592745349	l 2 gain
0.4592726038	effectively utilize
0.4592521479	time triggered
0.4592519586	data files
0.4592468985	statistical approaches
0.4592411406	network parameters
0.4591867562	polynomials of degree
0.4591597403	v t
0.4590946323	integrated systems
0.4590924023	evaluation result
0.4590849944	self organize
0.4590511122	significantly enhanced
0.4590279338	synthetic data and real
0.4590214636	iterative learning
0.4590059357	quantitative structure
0.4589559218	allocation algorithms
0.4589557639	velocity and acceleration
0.4589345723	total weight
0.4589153125	non binary
0.4587711779	o d
0.4587518771	storage nodes
0.4587129814	full rank
0.4586753984	vehicle based
0.4586741131	mining task
0.4586557353	detection and isolation
0.4586426728	international workshop on
0.4586377516	state error
0.4586221580	pivotal role
0.4586154202	taking into account
0.4586131862	wide scale
0.4585801463	encoding and decoding
0.4585758757	fast simulation
0.4585496755	evaluation techniques
0.4585418256	performance gap
0.4585417176	simulation results illustrate
0.4585201348	takes into account
0.4585164292	complex relationships
0.4585011509	process simulation
0.4584888780	simple heuristics
0.4584577122	generated automatically
0.4584515043	statistical approach
0.4583935532	test images
0.4583214360	hierarchical fuzzy
0.4582421064	process level
0.4582260629	mobile to mobile
0.4582111014	information source
0.4581618766	process integration
0.4581482706	optimum number
0.4581130897	018 mum
0.4580434133	scheduling techniques
0.4580247100	method called
0.4579992039	local properties
0.4579728659	paper describes
0.4579618600	arbitrary topology
0.4578612176	pattern recognition techniques
0.4578083504	collected data
0.4577965344	supervised clustering
0.4577946208	position and orientation
0.4577711118	e commerce applications
0.4576965218	crucial role
0.4576653079	mapping approach
0.4575723771	p laplacian
0.4575716587	individual characteristics
0.4575716377	research environment
0.4575676825	neural network ann
0.4575568093	middleware based
0.4575177161	efficient learning
0.4575073354	full fledged
0.4574754584	directly affects
0.4574249377	objective genetic algorithm
0.4573649357	effective communication
0.4572118503	long and short
0.4571947313	image sets
0.4571817979	teaching and learning
0.4571683080	cooperative work
0.4571660761	communication path
0.4571544134	recovery process
0.4571429087	computational analysis
0.4571427293	unsupervised feature
0.4571099758	compression performance
0.4570034960	limited success
0.4569697458	networking services
0.4569052171	unit cost
0.4568891495	metric based
0.4568815809	design phase
0.4568543009	initial step
0.4568486151	dramatically improve
0.4567615209	detection and prevention
0.4567531064	future wireless
0.4566852556	aware dynamic
0.4566787337	inner loop
0.4566748992	online collaborative
0.4566473858	model based approach
0.4566355355	lower energy
0.4566208611	changing environment
0.4566148440	wide web
0.4565994881	external resources
0.4565608107	90 nm
0.4565578569	an agent based approach
0.4565424669	identification algorithms
0.4565406551	train and test
0.4565267815	enterprise information
0.4565102795	activity analysis
0.4565100538	one dimensional
0.4564749972	process knowledge
0.4564649524	computer security
0.4564360154	recent literature
0.4563811495	online environment
0.4563544779	controller parameters
0.4562869024	analytically derived
0.4562806993	awareness information
0.4562433974	reasoning cbr
0.4562014789	concept analysis
0.4561884399	fire detection
0.4561794791	middle temporal
0.4561722328	energy density
0.4561619846	data redundancy
0.4561578058	previous findings
0.4560796773	management information
0.4559713683	line signature
0.4558946643	graphs of bounded
0.4558502692	013 mum
0.4558208330	coding standard
0.4557849741	error ratio
0.4557681721	description coding
0.4557209220	high dynamic
0.4556265301	continuous control
0.4555946208	passive and active
0.4555741763	modeling process
0.4555405747	temporal variations
0.4555283791	tree network
0.4554726902	supervised learning methods
0.4554544493	experimental results validate
0.4554329950	dense networks
0.4554024347	quality measurement
0.4553717415	management issues
0.4553170355	real and imaginary
0.4552907170	automatic video
0.4552760502	selective channels
0.4552575980	significant progress
0.4552224424	traffic network
0.4551852380	evaluation process
0.4551653634	ground level
0.4551388025	2005 pp
0.4551220336	dynamic context
0.4550993032	conducted experiments
0.4550002482	coefficient of variation
0.4549961933	quantitative methods
0.4549784144	iterative process
0.4549601758	an integer linear programming
0.4549245263	save power
0.4548976145	chip architecture
0.4548932744	major steps
0.4548857677	implementation techniques
0.4548785206	bayesian algorithm
0.4548604417	embedded system
0.4548575070	low computation
0.4548535241	fast learning
0.4548414243	p q
0.4548409328	design verification
0.4547979886	semantic model
0.4547822176	underlying mechanisms
0.4547532353	order of magnitude
0.4546975539	underlying hardware
0.4546838814	state of art
0.4546467103	users query
0.4546021853	presence or absence
0.4545957769	network environments
0.4545894844	low performance
0.4545640947	integrated development
0.4545538769	small and medium
0.4545435732	hierarchical network
0.4545273535	signal components
0.4544800720	provide evidence
0.4544373107	simulation experiments
0.4544287127	lead time
0.4543915350	generation technique
0.4543873305	3 d
0.4542172127	images obtained
0.4541830153	dynamic distributed
0.4541115619	time delayed
0.4539740501	based recommender systems
0.4538393563	display systems
0.4538365814	machine learning and data
0.4537939325	graph dag
0.4537355714	s r
0.4536842394	quality of care
0.4536828032	results reveal
0.4536343817	implementation strategies
0.4536266038	model identification
0.4536036673	cognitive learning
0.4535992796	neural models
0.4535992355	valued data
0.4535946208	availability and reliability
0.4535483944	an experimental investigation
0.4535260677	monte carlo based
0.4535138516	significantly influence
0.4534725745	consensus algorithm
0.4534658387	big challenge
0.4534241353	data objects
0.4534180439	diversity technique
0.4533982902	challenging issues
0.4533338590	automatic text
0.4533290976	h filtering
0.4532859368	to digital converter
0.4532834914	on line
0.4532792202	task force
0.4532741895	copyright 2009 john wiley sons ltd
0.4532468138	45 nm
0.4532231053	reduced significantly
0.4531613778	input pattern
0.4531591765	conformational changes
0.4531007939	fuzzy sliding
0.4530277592	multiple parallel
0.4530194104	scheme for wireless sensor networks
0.4529988089	distribution scheme
0.4529377592	detailed models
0.4528688217	analytical expression
0.4528156256	sensors and actuators
0.4527007301	systematic design
0.4526717288	adaptive mesh
0.4526242419	function values
0.4526128153	efficient dynamic
0.4525946208	reliability and availability
0.4525841304	exchanging information
0.4525671691	multiple user
0.4525650958	leaf area
0.4525649674	non orthogonal
0.4525360106	018 m cmos
0.4524675332	et al
0.4524056935	top k query
0.4523786056	cognitive wireless
0.4523696195	scale computing
0.4522968027	well formed
0.4522619063	learning mechanism
0.4522359440	mobile p2p
0.4522262618	commonly employed
0.4520978057	exchange information
0.4520644139	result demonstrates
0.4520506353	design challenge
0.4520172030	final solution
0.4520156445	convergence result
0.4519724259	pca method
0.4519176508	scanning electron
0.4518776497	management decisions
0.4518244244	sub sampling
0.4518124295	single and double
0.4518027384	generated content
0.4517715572	focus of attention
0.4517369429	failure data
0.4517338753	model assumes
0.4517056144	problem of reconstructing
0.4515841621	modelling approaches
0.4515826803	bit key
0.4515739372	level concepts
0.4515711666	routing and wavelength
0.4515674162	final goal
0.4514816297	shot boundary
0.4514621427	short and long
0.4514518508	results confirm
0.4514005499	b mode
0.4513777976	significant attention
0.4513652491	research tool
0.4512909799	end result
0.4512886631	number of relay nodes
0.4512161627	small to medium
0.4511776068	fan out
0.4511360280	snr region
0.4511179668	successfully demonstrated
0.4511109103	access control mac protocols
0.4509405548	descent algorithm
0.4509297783	0 1
0.4508912344	related properties
0.4508832365	syntax and semantics
0.4508775675	diagnosis and treatment
0.4508329545	attention model
0.4508304197	efficient numerical
0.4508243522	evaluation criterion
0.4508070890	robust algorithms
0.4507571400	processing methods
0.4507554928	complex problems
0.4507357717	interactive virtual
0.4507183358	usability and security
0.4506962339	probability of error
0.4506632220	feedback technique
0.4505993000	zero day
0.4505946208	analog and digital
0.4505906525	magnitude and phase
0.4505324359	frequency resolution
0.4505167530	present and future
0.4505108902	image datasets
0.4504531470	minimizing total
0.4504181565	reduction algorithm
0.4504067440	fusion techniques
0.4504015142	international symposium on
0.4503997192	connected networks
0.4503944228	computation tree
0.4503653449	related tasks
0.4503315943	design concepts
0.4503287289	large industrial
0.4503012739	synthesis tools
0.4502967641	main focus
0.4502828372	design effort
0.4502688011	rapid growth
0.4502573192	social and cultural
0.4502103931	security and trust
0.4502032810	over finite fields
0.4501976009	annealing sa
0.4501880411	discriminative power
0.4501771960	theoretical understanding
0.4501565311	problems arise
0.4500166676	process design
0.4499550029	main issues
0.4499042329	line detection
0.4498892780	segmentation framework
0.4498671126	classification algorithm based
0.4498662853	of arrival tdoa
0.4498244185	design variables
0.4497235461	application framework
0.4497080732	role labeling
0.4496413441	dynamic performance
0.4495996219	network graph
0.4495239656	sample based
0.4495234853	second order sliding
0.4495095855	global minimum
0.4494967055	privacy and security
0.4494914219	real world data set
0.4494207846	classification rule
0.4493952199	prediction of protein
0.4493424084	spectrum based
0.4493416866	biomedical information
0.4492695228	svm model
0.4492673222	empirical risk
0.4492209079	sensitivity and specificity
0.4491291745	human errors
0.4491009616	v v
0.4490709029	significant effort
0.4490686578	dynamic load
0.4490615566	assignment schemes
0.4490472508	spectral data
0.4490218100	processing systems
0.4489688543	based representations
0.4489570788	view based
0.4489539544	large amounts of data
0.4489245821	effective channel
0.4488299802	statistical information
0.4488187462	improved significantly
0.4488062434	central nervous
0.4486933203	symbolic data
0.4486683610	increasing demand
0.4486572530	search technique
0.4485136447	non overlapping
0.4484471364	coding algorithm
0.4484449698	design development
0.4484099254	collaborative work
0.4483898127	global optimal
0.4483759581	main parts
0.4483489481	interactive tool
0.4482807012	real images
0.4482478795	optimal joint
0.4482443187	robust image
0.4482442765	mapping algorithms
0.4481690405	solution sets
0.4481507566	major issue
0.4481198061	limited information
0.4480801742	distinguishing feature
0.4480787477	efficiency and fairness
0.4480258618	well posed
0.4480194802	important issues
0.4479978369	stationary noise
0.4479333343	selection framework
0.4479000814	approximation methods
0.4478843459	optimal rate
0.4478600106	tree induction
0.4478400141	generation algorithms
0.4478282784	likelihood ml
0.4478055666	diversity scheme
0.4477294227	multi service
0.4477094149	communication graph
0.4476904405	a controlled experiment
0.4475780285	analysis framework
0.4475690491	locked loops
0.4475123657	main motivation
0.4474964777	low throughput
0.4474769890	distribution function cdf
0.4473778395	large numbers
0.4473423208	emitting diodes
0.4473270866	validity and reliability
0.4472623873	global model
0.4472611451	java programming
0.4472322980	fourier transformation
0.4472178181	optimization criteria
0.4472002424	design solutions
0.4471688590	input method
0.4471629857	conduct extensive
0.4471617783	g denoted
0.4471577148	extensive experimental evaluation
0.4471473090	noise environments
0.4471284892	extensive research
0.4471182387	numerical results demonstrate
0.4469855726	derive closed form expressions for
0.4469675958	graph analysis
0.4469362712	optimal or near optimal
0.4469329798	small devices
0.4469150016	3d ic
0.4468483667	experiment results
0.4468364070	generic model
0.4468117927	greatly increased
0.4467917901	financial data
0.4467884758	produce high quality
0.4467850228	separation algorithm
0.4467127031	life test
0.4466986137	improved genetic
0.4466793293	fuzzy if then
0.4466676642	learning tools
0.4466565453	power devices
0.4466348654	method of moments
0.4466313793	localization and tracking
0.4465906525	fast and slow
0.4465062592	self contained
0.4464763060	identification algorithm
0.4464584647	construction algorithm
0.4463775572	markov model hmm
0.4463518476	measured data
0.4461800106	success or failure
0.4461611363	individual user
0.4461569941	personal computer
0.4461244574	solution method
0.4461227106	approximation scheme
0.4460136821	generation methods
0.4460113503	delay requirements
0.4459683820	enterprise service
0.4459609821	many core
0.4459448351	allocation method
0.4458101735	hop networks
0.4457377207	earlier paper
0.4457035057	retrieval framework
0.4456898168	distributed denial of service
0.4456876165	n dimensional
0.4456865270	segmentation problem
0.4455719652	cognitive tasks
0.4455577890	recently received
0.4455275218	ml performance
0.4454526253	wired and wireless
0.4454202754	e learning platform
0.4454086111	tracking framework
0.4454004262	dynamic bandwidth
0.4453789399	filtering approach
0.4453701633	dc converters
0.4453625694	function dcf
0.4453466098	reliability and validity
0.4452837167	hop wireless
0.4452601666	training phase
0.4452228929	close form
0.4451895495	management system
0.4451715623	reality environments
0.4451102147	vehicle control
0.4450505185	scheduling method
0.4450501036	diffusion based
0.4450147478	multiple concurrent
0.4449990003	on chip networks
0.4449711377	natural question
0.4449539089	attitudes towards
0.4449524824	memory models
0.4448696357	state complexity
0.4448688715	significant contributions
0.4448443013	transformation process
0.4448327374	comparable performance
0.4448177532	industrial systems
0.4448006956	critical information
0.4447575218	projection data
0.4447225237	general public
0.4447104752	group learning
0.4446587293	inversely proportional
0.4445895786	deep packet
0.4445466816	fuzzy logic system
0.4444930589	quality of experience
0.4444419563	to conserve energy
0.4444359105	robust performance
0.4444216614	distributed event
0.4444101489	efficient data
0.4443609002	et al 2005
0.4443546267	linear time
0.4442427429	simulated annealing based
0.4441328957	application program
0.4440959034	security models
0.4440804528	parameter set
0.4440472580	reconstruction techniques
0.4440079320	environmental parameters
0.4439549469	critical aspect
0.4439221702	structural models
0.4438695539	public services
0.4438689818	dynamic graph
0.4438271053	experiment conducted
0.4438064543	level abstractions
0.4437701727	snr based
0.4437551888	codes of length
0.4437158046	research development
0.4437101846	control and data
0.4436269616	interpolation methods
0.4435579516	data type
0.4435130376	coherence protocol
0.4435106994	near optimal solutions
0.4434945992	lower quality
0.4434895987	type algorithms
0.4434620725	significantly decrease
0.4434533293	special section on
0.4434324362	transport systems
0.4433627990	large memory
0.4433620434	fixed and mobile
0.4433154803	detection approach
0.4433009347	singular value
0.4432321064	multiple instances
0.4431921442	discrete time stochastic
0.4431901883	content and structure
0.4431756239	rendering method
0.4431106310	efficient online
0.4429817087	distribution model
0.4429806253	emerging technology
0.4429591545	formally prove
0.4429463562	sample data
0.4428557914	source signal
0.4428032289	easy to implement
0.4427711583	an integrative
0.4427701815	increase or decrease
0.4427046066	tactile information
0.4427000779	distributed resource
0.4426742393	data blocks
0.4426676566	mimo interference
0.4426437054	top management
0.4426430530	robust speech
0.4426075229	copyright 2008 john wiley sons ltd
0.4425885740	non cooperative game
0.4425787381	imaging technique
0.4425263804	classification of hyperspectral
0.4425250381	mac protocol for wireless
0.4424831188	an evaluation framework
0.4424540972	model captures
0.4424252425	ieee 80211 networks
0.4423840320	simple but powerful
0.4423644845	main advantages
0.4423122218	studies suggest
0.4422582869	binary patterns
0.4422405446	a rule based approach
0.4422154261	visual data
0.4421527337	spectral components
0.4421489763	fundamental step
0.4420133072	well behaved
0.4419206418	main factors
0.4418985598	sensing systems
0.4418200758	reduction schemes
0.4417924642	small step
0.4417727754	assessment process
0.4416353018	non negative
0.4416146806	kinematic and dynamic
0.4415819522	architectural model
0.4415769318	based models
0.4415711643	matrix elements
0.4415182339	reduced size
0.4415164603	people with disabilities
0.4414674355	requires fewer
0.4414540890	second order accurate
0.4414475723	implementation complexity
0.4414457973	modeling language uml
0.4414250457	capacity performance
0.4414087464	an ad hoc manner
0.4414007000	service performance
0.4413136247	classes of graphs
0.4413065094	exact location
0.4412433685	competitive algorithm
0.4412361086	extensive evaluation
0.4411558246	data capture
0.4411388824	machine svm
0.4410952192	recognition error
0.4409858487	fuzzy analytic hierarchy
0.4409158339	environment monitoring
0.4409060883	aware services
0.4408875515	third parties
0.4408620306	reasonable cost
0.4407796206	developing software
0.4407303562	full rate
0.4406795414	traditional methods
0.4406316167	significant positive
0.4406221670	average performance
0.4405918350	aware adaptive
0.4405745913	engineering tools
0.4405301447	analytical methods
0.4404843280	computing model
0.4404721948	fuzzy risk
0.4404188565	large complex
0.4404022914	experimental results suggest
0.4403878204	operating characteristic
0.4403822667	research studies
0.4403389860	efficient solution
0.4402526849	preliminary evaluation
0.4402172808	internet architecture
0.4402048159	iterative approach
0.4402037652	time slot
0.4401229647	o m
0.4401027754	fundamental importance
0.4400565486	data dependencies
0.4399902659	homogeneous and heterogeneous
0.4399350283	fast implementation
0.4398904629	design language
0.4398463366	integration process
0.4398203750	behavior modeling
0.4398188317	an aspect oriented
0.4398162970	existing models
0.4398134851	underlying network
0.4398076961	monitoring system
0.4397977177	customer value
0.4397080613	based algorithm
0.4396891985	low and high
0.4396882268	method works
0.4396222819	collaborative knowledge
0.4396080423	technologies ict
0.4395758510	node based
0.4395729966	ofdma system
0.4395686006	013 m cmos
0.4395616537	convergence behavior
0.4395055431	management mechanism
0.4394771035	performance requirements
0.4394507679	g protein
0.4394253122	classification based
0.4393929239	test image
0.4393909251	real time control
0.4393887265	visual input
0.4393576410	abstractrnrnthis paper
0.4393488029	existence and uniqueness
0.4392907020	fast and robust
0.4392753925	dynamic frequency
0.4392567717	based learning
0.4392252831	points of view
0.4392150173	cancellation sic
0.4392123063	type based
0.4390804704	changing business
0.4390749532	stations bss
0.4390594466	dynamics simulation
0.4390562449	high degree of accuracy
0.4390415268	self organizing neural
0.4389539940	storage and retrieval
0.4389488365	significant contribution
0.4389276369	multiagent system
0.4389020931	single and multi
0.4388924360	partitioning method
0.4388264585	ieee transactions on
0.4388138999	experiments demonstrate
0.4387789886	refinement process
0.4387647810	existing research
0.4387597778	energy and performance
0.4387509797	decision systems
0.4387342285	linear programming ilp
0.4387249986	mapping method
0.4386990286	special needs
0.4386825163	sensor networks wsns
0.4386377567	rfid system
0.4386377554	discrete and continuous
0.4386327929	data models
0.4386249722	dimensional vector
0.4385396419	proposed framework
0.4385083209	dynamic resource
0.4384811584	an evolutionary approach
0.4384553432	learning based
0.4384160493	video and audio
0.4384027707	prediction problem
0.4383729506	simulation environments
0.4383501511	efficiently manage
0.4383300238	number of colors
0.4383027692	4 dof
0.4382960777	feasible set
0.4382689793	simulation examples
0.4382550227	per minute
0.4382398385	decision variable
0.4382217763	evaluation results
0.4381776288	detailed comparison
0.4381183281	response rate
0.4380642303	wireless data
0.4380412733	side effects
0.4379912996	linear and non linear
0.4379902548	method utilizes
0.4379633666	design tools
0.4379276021	reasoning systems
0.4379083207	hierarchical multi
0.4378891300	practical application
0.4378789162	diffusion imaging
0.4378660817	oriented software
0.4378012211	finite time
0.4377722392	control model
0.4377668625	effectively solve
0.4377413694	objective of maximizing
0.4377396648	robotics applications
0.4377382334	voltage and temperature
0.4377213489	design criterion
0.4376892587	dynamic content
0.4376735436	interactive rates
0.4375733398	task sets
0.4375662070	precision and recall
0.4374689523	temporal context
0.4373809866	synthesis techniques
0.4373626846	multiple data
0.4372500314	oriented computing
0.4372044538	hybrid control
0.4371937161	single processor
0.4371773705	data preparation
0.4371768349	digraph d
0.4371705889	indexing method
0.4371665803	free graph
0.4370472563	online information
0.4370388336	continuous and discrete
0.4370324153	function based
0.4370283610	energy performance
0.4370085336	rendering algorithm
0.4369529607	non trivial
0.4369406915	widely distributed
0.4368926794	successfully tested
0.4368865247	dynamic bayesian
0.4368651114	type i
0.4368501550	paper summarizes
0.4366817407	p cycle
0.4366551075	sensor applications
0.4366398055	band uwb
0.4366043574	t s fuzzy model
0.4365684054	n n
0.4365586383	natural environment
0.4365531110	standard error
0.4365092040	comput chem 2010
0.4365006972	space domain
0.4364794477	universal mobile
0.4364729723	triple systems
0.4363080240	random linear network
0.4362970436	easily solved
0.4362855006	experimental results illustrate
0.4362824588	extremely efficient
0.4362427750	anytime anywhere
0.4362310479	visualization method
0.4362248799	2004 pp
0.4362179210	challenging problem
0.4362075313	discrete dynamical
0.4361960604	increasing popularity
0.4361518672	oriented languages
0.4360655214	network links
0.4360615276	main challenge
0.4360399808	extremely small
0.4359905365	vector data
0.4359535760	experiment showed
0.4359412720	translation rotation
0.4358726307	input distribution
0.4358705799	non holonomic
0.4358223296	network synchronization
0.4358101443	delay diversity
0.4357549296	frequency division multiplexing ofdm systems
0.4357535285	paper identifies
0.4357525198	simulation shows
0.4357474633	et al 2008
0.4357131258	a comprehensive review
0.4357051701	helps users
0.4356695424	search tools
0.4356680633	common information
0.4356353003	realistic scenario
0.4356301761	efficient estimation
0.4356183184	general framework
0.4355838278	new delay dependent
0.4355530232	adaptive algorithm
0.4355018041	on demand
0.4354469511	learning control
0.4354055594	control input
0.4353656191	an energy aware
0.4353619891	primary goal
0.4353102663	development methods
0.4353097358	management platform
0.4353009472	widely investigated
0.4352793448	semiconductor technology
0.4352510476	frame of reference
0.4352208803	access method
0.4352025707	researchers and practitioners
0.4351549962	distributed optimization
0.4351337400	network level
0.4351018999	global view
0.4350997928	reasonable accuracy
0.4350787477	estimation and compensation
0.4350483916	spatial and spectral
0.4349619449	intelligent decision
0.4349485454	basic level
0.4349263052	in situ measurements
0.4348821961	net based
0.4348470421	past years
0.4348131582	vision system
0.4347785729	potential advantages
0.4347660548	c v
0.4347025818	analysis of gene expression
0.4346225046	research focus
0.4346222334	arrival time
0.4346218178	research activity
0.4345135592	vehicle model
0.4344962757	simple geometric
0.4344627621	e services
0.4343433935	table size
0.4343373048	maximal independent
0.4343116766	segmentation and tracking
0.4342890847	architectural level
0.4342774053	reliable data
0.4341624064	biological information
0.4341263962	interest rate
0.4340688060	programming framework
0.4340633902	data elements
0.4339862165	hybrid feature
0.4339146806	social and economic
0.4338421654	h index
0.4338230919	programming formulation
0.4337962002	current web
0.4337487065	holding time
0.4337416773	adaptive network based fuzzy inference system
0.4337321747	inference techniques
0.4336981039	local structure
0.4336663435	special hardware
0.4335615682	security research
0.4335101247	automated generation
0.4334755020	diversity based
0.4334655929	time lag
0.4334559462	conditional random
0.4334401706	existing grid
0.4334234105	key aspects
0.4334185122	t f
0.4334073835	complete solution
0.4333748891	symbol error
0.4333005306	open problem
0.4332909970	performance impact
0.4332480139	images and videos
0.4332385157	previously defined
0.4332287234	market model
0.4331903481	evolution of cooperation
0.4331025876	routing in wireless sensor networks
0.4330948475	type fuzzy
0.4330779367	iterative channel
0.4330571640	et al 2006
0.4330148433	non interactive
0.4329842598	computer generated
0.4329711585	non convex
0.4329578952	achieve high accuracy
0.4329495554	a formal model
0.4328838960	reliability model
0.4328765218	long periods
0.4328576499	sensing capabilities
0.4328540975	strong security
0.4328384123	model complexity
0.4328256551	media independent
0.4327742279	no significant difference
0.4327703690	cognitive radio system
0.4327383053	analytical and simulation
0.4327267025	passive optical
0.4326853904	intermediate results
0.4326707537	trade offs between
0.4326235128	log n
0.4325356883	existing services
0.4325093545	non linear
0.4325026738	all rights reserved
0.4324780068	performance guarantee
0.4324687760	network node
0.4324629428	volumes of data
0.4324147329	sub word
0.4323960877	spectral graph
0.4323897827	control system
0.4323853665	point method
0.4323540934	sequential and parallel
0.4322132246	scale image
0.4321842419	periodic boundary
0.4321829382	time stamped
0.4321755219	community of practice
0.4321578663	memory resources
0.4321535435	originally designed
0.4321452223	multi platform
0.4321329229	control software
0.4321088975	tree models
0.4321072283	higher levels
0.4320264358	signal to interference and noise ratio
0.4320145466	multi packet
0.4320089794	update algorithm
0.4319528100	electronic components
0.4319222649	simple graph
0.4318977353	request harq
0.4318497847	manual control
0.4318351885	network elements
0.4318010207	second moment
0.4317654245	performance constraints
0.4317200855	building models
0.4316811634	speech based
0.4316792800	using genetic algorithms
0.4316688347	per core
0.4316442459	per formance
0.4316302049	direct comparison
0.4315124481	energy model
0.4315083070	incoming data
0.4314821412	sequential processes
0.4313358610	automatic generation
0.4312518346	important questions
0.4311754676	matrix based
0.4311218265	model predictive
0.4310836207	detection and tracking
0.4310781453	processing phase
0.4310535695	centralized and distributed
0.4310035516	vertex v
0.4309588324	large signal
0.4309146819	interference and noise
0.4309146806	modulation and coding
0.4308721330	science and technology
0.4308562919	detection systems
0.4308096306	relaxation based
0.4308006204	method combining
0.4307751631	score based
0.4307136287	data volume
0.4306935710	top level
0.4306254487	program library queens university belfast n
0.4305983951	synthesis process
0.4305603075	2009 wiley periodicals
0.4305069296	model parameter
0.4304907775	vast majority
0.4304672985	point of view
0.4304600768	task systems
0.4304404066	organic light
0.4304284234	frequency and amplitude
0.4304141540	practical examples
0.4303904062	noise and interference
0.4302999361	information matrix
0.4302731342	transmission and reception
0.4302642277	past studies
0.4302358366	discrete systems
0.4302301920	top n
0.4302046244	p systems
0.4301600560	cell design
0.4300106230	potential applications
0.4299950908	engineering approaches
0.4299890702	advantages and disadvantages
0.4299766582	defense against
0.4299362480	graph with n vertices
0.4298967071	relevant literature
0.4298532854	human social
0.4297751870	expected value
0.4297026234	polynomial functions
0.4296489782	planning and scheduling
0.4296061011	field tests
0.4295292362	automatically determine
0.4295070468	perceived ease of use
0.4294572884	detection and recovery
0.4294320716	experimental results verify
0.4293678466	dependent stability
0.4293553145	linear discrete time
0.4292605650	room for improvement
0.4292430610	final result
0.4292259141	algorithm for wireless sensor networks
0.4292015291	035 m cmos
0.4290426073	oriented grid
0.4289964338	total execution time
0.4289777579	acyclic graphs
0.4288867948	sensor technology
0.4288795376	self optimizing
0.4287238266	an object oriented
0.4287215389	robust feature
0.4286943523	of arrival aoa
0.4286629493	achieving higher
0.4285498228	structure prediction
0.4284997283	learning and teaching
0.4284928856	combined approach
0.4284290005	p p
0.4284279354	services qos
0.4283493613	machine model
0.4283416782	an analytical model
0.4282498693	printed circuit
0.4281196419	oriented framework
0.4281185592	et al 2004
0.4280289883	coding amc
0.4280245368	suggest ways
0.4279679074	dynamic information
0.4279659541	functional and non functional
0.4279657249	subjective and objective
0.4279516060	average energy
0.4278935371	design project
0.4278934687	routing protocol for wireless
0.4278929356	paper compares
0.4278906984	reputation system
0.4278631851	frequency identification
0.4278556089	reference data
0.4278510292	over frequency selective
0.4277971605	et al 2007
0.4277787341	interest rates
0.4277748961	number of rounds
0.4277293434	random search
0.4276195486	steady state performance
0.4275665010	simulation methods
0.4275662205	part of speech tagging
0.4275634516	risk model
0.4275483916	spectral and spatial
0.4275141096	distributed multi
0.4273776996	estimation framework
0.4273767051	mining process
0.4273662358	distributed information
0.4273455787	key idea
0.4273389443	instruction multiple data
0.4272907201	communication tool
0.4272606468	client based
0.4272242127	methods outperform
0.4272135395	extraction task
0.4272007451	rationale behind
0.4271555124	previous experience
0.4271247193	3d point cloud
0.4270916438	exact results
0.4270805548	proposed approach
0.4270737268	errors caused
0.4269673675	feed back
0.4269616720	computational properties
0.4269351886	use cases
0.4268727951	allocation mechanism
0.4267117478	approach achieves
0.4267062382	diagram based
0.4266435617	inverse model
0.4266359249	usage data
0.4265924842	power system
0.4265595489	high speed data
0.4265352246	image domain
0.4264667485	empirical results demonstrate
0.4263971604	semantic similarity between
0.4263819746	k connectivity
0.4263813541	communication scenarios
0.4263657720	service qos
0.4263618496	test quality
0.4263517641	retrieval results
0.4262154147	learning effects
0.4261003454	value at risk
0.4260873471	t t
0.4260594166	lower error
0.4260366548	real life problems
0.4260053532	integrated model
0.4260032324	power and performance
0.4259887194	trapezoidal fuzzy
0.4259278304	key requirements
0.4258916910	control circuit
0.4258891791	target state
0.4257198653	sizing problem
0.4256812371	term based
0.4256675786	recall and precision
0.4256536705	significant advantage
0.4256506031	ability to adapt
0.4256056710	theoretically and experimentally
0.4255946208	safety and security
0.4255944895	speech recognition performance
0.4255918512	learning platform
0.4255701002	one way delay
0.4255460607	in first out
0.4254349244	main challenges
0.4253454766	non euclidean
0.4252999673	efficient set
0.4252523769	authentication and key
0.4252500109	defending against
0.4252464592	production and distribution
0.4252244727	optimal adaptive
0.4252147213	phase flow
0.4252037077	large scale wireless sensor
0.4251999488	results imply
0.4251727759	surface normal
0.4250712575	similarities and differences
0.4250449265	pre specified
0.4249827076	measured values
0.4249381500	human and machine
0.4249146806	knowledge and skills
0.4248278005	main objectives
0.4247389202	systems integration
0.4247117016	application code
0.4246544555	detection and decoding
0.4246411609	modeling errors
0.4246215382	robot platform
0.4245616276	input features
0.4245273038	original images
0.4244373558	upper and lower
0.4241861897	thousands of genes
0.4241493096	network routing
0.4240651271	based web service
0.4240598699	individual learning
0.4239815658	search mechanism
0.4239672267	adaptive network
0.4239636070	design scheme
0.4239622894	digital implementation
0.4239410640	time temporal logic
0.4239314606	event data
0.4239146806	cycle of length
0.4238987942	ln n
0.4238913950	structural and functional
0.4238170163	quality of service requirements
0.4238160453	management capabilities
0.4237607735	mac scheme
0.4237492554	baseline methods
0.4237486423	mathematical framework
0.4237284148	additional advantage
0.4237161958	nuclear power
0.4235731836	communication process
0.4235199734	filtering problem
0.4235070516	selection approaches
0.4234731342	academic and industrial
0.4234230239	network effects
0.4233662908	time varying channel
0.4233517975	enhancement method
0.4233469971	noise models
0.4231765218	optimum power
0.4231596946	computation overhead
0.4230806227	management techniques
0.4230368759	scalability issues
0.4230301078	achieve high
0.4230260735	basic functions
0.4230144564	recommendation system
0.4230067495	detection problem
0.4228859097	first in first out
0.4228462715	quantum computer
0.4227688195	segmentation and recognition
0.4226891400	complex patterns
0.4226283214	centralized algorithm
0.4226224407	competitive performance
0.4226119445	random vector
0.4225336444	practical problems
0.4224411323	dynamic software
0.4223971645	second order logic
0.4223880986	computer based
0.4223546626	science and engineering
0.4223545257	image details
0.4223492776	identification problem
0.4222998919	1 dof
0.4222805801	optimization procedures
0.4222804317	number of threads
0.4222600011	stable model
0.4222455111	language called
0.4222341421	defend against
0.4221687151	positioning system
0.4221624267	security and reliability
0.4221376022	sum power
0.4221293700	an improved
0.4220862382	reality environment
0.4220841021	an agent based simulation
0.4220723355	distributed shared
0.4220311685	substantially improved
0.4220304780	based control
0.4220142100	crucial issue
0.4220083579	initial phase
0.4220071402	scale model
0.4219443282	spatial structures
0.4219430035	spatial and temporal
0.4219206916	initial experiments
0.4219130504	per pixel
0.4218923000	results demonstrate
0.4218673667	graph on n vertices
0.4218103459	embedded real time
0.4217873949	under actuated
0.4217560787	chip interconnects
0.4217498952	power and area
0.4216619595	structure and motion
0.4215207247	media access
0.4214349945	bayesian method
0.4213519121	access technology
0.4213409981	detection and correction
0.4213302599	cooperative multi
0.4212755300	graphical user
0.4212730734	negative bias
0.4212602464	non identical
0.4212075496	information and knowledge
0.4211976030	users perception
0.4211345588	promising solutions
0.4211302103	management problem
0.4211215363	control logic
0.4211079992	design procedures
0.4210906628	tuning parameters
0.4210717768	multi standard
0.4210358647	online service
0.4210337298	area and power
0.4210300218	collaborative process
0.4209967815	process ahp
0.4209765740	protocol analysis
0.4209732324	real world systems
0.4209618720	an incremental
0.4209515394	robustness to noise
0.4208231511	experiment result shows
0.4207989513	digital phase
0.4207697071	to digital converters
0.4207338576	non invasively
0.4207127033	compute unified
0.4206268527	paper evaluates
0.4205908960	constant time
0.4205618202	selection model
0.4205430849	streaming application
0.4205167952	citation index
0.4204585763	krasovskii functional
0.4204480183	3d reconstruction
0.4204464691	interference mai
0.4203882831	model matching
0.4203523618	learning procedure
0.4203353327	learning based approach
0.4203082234	storage system
0.4203077947	b trees
0.4203035008	incremental algorithm
0.4202774915	minimum bit
0.4202354826	time lags
0.4202271589	expression programming
0.4202150326	control approach
0.4201300527	human model
0.4201113936	model theory
0.4200811440	a posteriori
0.4200796691	real time face
0.4200666143	extraction methods
0.4200433916	protocol sip
0.4200235194	results obtained
0.4200067765	number of clusters
0.4199902795	80211 dcf
0.4199405246	network optimization
0.4199132523	software selection
0.4198876368	clustering problems
0.4198868689	performance figures
0.4198217930	based clustering algorithm
0.4198104937	approximation techniques
0.4197981659	layer protocols
0.4197471264	real time requirements
0.4197111639	an adaptive
0.4197093175	user provided
0.4196407705	simulation methodology
0.4196275964	human computer
0.4195804326	consequent part
0.4195727155	flow network
0.4195609783	a context aware
0.4194786233	optimization design
0.4194774796	management research
0.4194364378	high robustness
0.4192817597	one way function
0.4192553872	main areas
0.4191800052	an axiomatic
0.4191052802	speech data
0.4190878287	inner bound
0.4190856932	throughput and delay
0.4190508761	task level
0.4190188402	de facto
0.4189522023	effectively exploit
0.4189499542	efficiently exploit
0.4189309844	main finding
0.4189202196	signal to interference
0.4189139811	mechanical structure
0.4188789848	equilibrium state
0.4188692799	k ary n
0.4188244588	propagation method
0.4188156836	exact algorithm
0.4187697276	management services
0.4187532051	abstract state
0.4187488339	data and metadata
0.4186936099	application design
0.4186629469	in self test bist
0.4186547239	successfully employed
0.4186439092	optimal performance
0.4186259875	specific information
0.4185557694	alternative solutions
0.4185465521	element fe
0.4185427962	models including
0.4184902868	two phase
0.4184496203	mimo communication
0.4184377651	r n
0.4184335705	size and shape
0.4184212508	decision making problem
0.4184155459	discrete data
0.4184069311	programmable gate array fpga
0.4183899674	verification and validation
0.4183053705	efficient power
0.4182669061	value decomposition svd
0.4182271906	text images
0.4182256006	numerical simulation results
0.4182229081	real time task
0.4181924902	routing algorithm based
0.4181122241	local knowledge
0.4180129608	human user
0.4179143242	response time
0.4179081090	multi class support vector
0.4178860486	natural environments
0.4178816891	neural networks and support
0.4178424095	processor based
0.4178118472	programs written
0.4178092827	resource based
0.4177782051	local optimal
0.4176749560	distributed routing
0.4176463364	point algorithm
0.4175730547	sensing performance
0.4175355891	of arrival doa
0.4175190907	green and blue
0.4175020810	complete graph
0.4174974706	multi radio multi
0.4174678601	analytically and experimentally
0.4174527435	efficient video
0.4174462808	pay per
0.4174192996	texture image
0.4172591073	visual patterns
0.4172590364	fuzzy based
0.4172359154	quantitative and qualitative
0.4172302011	self test
0.4171730186	probabilistic framework
0.4171484773	computationally simple
0.4171245024	internal and external
0.4171038082	challenging issue
0.4170537952	improve performance
0.4170128676	exponential increase
0.4169318313	global and local
0.4168991603	properly designed
0.4168370493	main reasons
0.4168128601	right hand side
0.4167030413	number of iterations
0.4166796802	discovery mechanism
0.4166686482	lossless data
0.4165888566	qualitative and quantitative
0.4165578649	computation load
0.4165577862	out of band
0.4165058476	bp neural
0.4164381067	software and hardware
0.4164098992	data from multiple
0.4163586894	previous results
0.4163574990	experimentally demonstrate
0.4163533835	ten years
0.4162863628	registration based
0.4162617907	domain based
0.4161705781	computer engineering
0.4161418739	estimation based
0.4160401393	design specifications
0.4159548894	makes sense
0.4159206806	language generation
0.4158731673	numerical experiment
0.4158621664	neural networks with time varying
0.4158585105	computational approach
0.4158290934	scheduling and routing
0.4158034704	every vertex
0.4157860609	systems on chip
0.4157812195	significant cost
0.4157675199	large volumes of data
0.4155985463	human speech
0.4155869292	transfer of knowledge
0.4155759648	approximate algorithm
0.4155245249	higher performance
0.4155058942	learning problems
0.4154849631	robustness properties
0.4154790902	graphics applications
0.4154653596	fault diagnosis system
0.4154388350	logic ltl
0.4154024114	test results
0.4153578588	m n
0.4153098060	decision making method
0.4152519063	search systems
0.4152053887	hierarchical approach
0.4151899674	exact and approximate
0.4151627847	cache based
0.4151624926	information retrieval system
0.4151620298	dialog system
0.4151375576	single instruction
0.4150267849	pieces of information
0.4150097251	annotated data
0.4149779114	analysis ica
0.4149438690	numerous studies
0.4148719417	architecture based
0.4147825887	simultaneous localization
0.4147793797	detailed description
0.4147648474	existing knowledge
0.4146519008	communication constraints
0.4146213765	information communication
0.4145637311	processing method
0.4144561747	paper defines
0.4143023197	average end to end
0.4142963552	circuit model
0.4142827181	an integrated approach
0.4142473272	lagrangian method
0.4142256003	bag of visual
0.4141543480	realistic model
0.4141376950	with limited feedback
0.4141041869	time to failure
0.4140890176	pseudo relevance
0.4140658435	video services
0.4140297826	current internet
0.4140267161	wireless personal
0.4139704977	a pilot study
0.4138352991	selection based
0.4138170771	performance characteristics
0.4138120167	achieve near optimal
0.4137164880	large and small
0.4137054222	transmission electron
0.4136950167	cancer data
0.4136649884	control function
0.4136447694	channel effects
0.4136322857	learning speed
0.4135866298	multiple target
0.4135705679	development stages
0.4135507906	written in java
0.4135382865	classification results
0.4134471849	transmission quality
0.4134430838	design stage
0.4134319850	care services
0.4134272059	nonlinear systems with
0.4134202054	preconditioned conjugate
0.4134091767	adaptive channel
0.4133897502	exponential time
0.4132945466	detection and diagnosis
0.4132812814	acceptable performance
0.4132602334	free weighting
0.4131614948	inversely proportional to
0.4130954763	processing technology
0.4130871380	fast detection
0.4130693354	free and open
0.4130177338	becoming increasingly popular
0.4129859870	o log
0.4127368836	performance objectives
0.4126899674	costs and benefits
0.4126874855	propagation environment
0.4126819262	library and information
0.4126685593	computing services
0.4126395076	integrated solution
0.4126328212	aided design
0.4126299682	real life data
0.4125360904	usage mining
0.4124906980	promising performance
0.4124382046	image edges
0.4124099730	human users
0.4123679036	probability of success
0.4123677699	high and low
0.4123638106	evaluation approach
0.4123442792	attacks against
0.4122993429	orders of magnitude faster than
0.4122916730	latest version
0.4122831206	3 d reconstruction
0.4121663077	distributed power
0.4121624267	research and education
0.4121538549	management process
0.4120713383	standard cells
0.4119576266	performance and reliability
0.4118998335	timely manner
0.4118915589	distributed space time
0.4118758952	illumination changes
0.4118159255	small memory
0.4118011950	results revealed
0.4117614456	efficient communication
0.4117613613	encoding method
0.4117215306	shape parameters
0.4117021143	embedded control
0.4116331158	integrated approach
0.4115416163	conducting experiments
0.4115269286	energy efficient data
0.4114864382	evaluation shows
0.4114708152	solution methods
0.4114597795	a closed form expression
0.4114270279	optimal filter
0.4113567348	multiple applications
0.4113434415	number of occurrences
0.4113013713	sensing in cognitive
0.4112989239	great challenge
0.4112708426	supervised method
0.4112073670	control action
0.4112013353	provide valuable information
0.4111716270	face model
0.4111624267	storage and processing
0.4111621101	significantly shorter
0.4110829594	ontology model
0.4110600880	non iterative
0.4109537834	relevant content
0.4108881959	multiple wireless
0.4108289989	design and manufacturing
0.4108008524	programming approach
0.4107850193	joint distribution
0.4107544510	oxide semiconductor
0.4107529618	time intervals
0.4107386462	research results
0.4107063616	distributed application
0.4106440530	model reference
0.4106012174	language design
0.4105700223	theoretical and experimental
0.4105324032	commercially available
0.4104750565	single product
0.4103952524	numerous applications
0.4103765167	search applications
0.4103674556	transformed data
0.4103357863	single and multiple
0.4103327961	reasoning method
0.4103308398	order finite
0.4103108337	h infin
0.4103100888	technology node
0.4103046644	identification methods
0.4102380857	complex social
0.4102368407	study examines
0.4100681867	paper discusses
0.4100663388	direct methods
0.4099960547	relation based
0.4099578715	conventional schemes
0.4099554879	l r
0.4098952002	synchronization method
0.4097317104	management schemes
0.4097174215	a web based tool
0.4096342264	comparison based
0.4096171648	times faster than
0.4096124272	international conference on
0.4095133124	best relay
0.4094305941	individual nodes
0.4094021295	differential systems
0.4093969208	problem domains
0.4093306275	based testing
0.4092624200	context specific
0.4092279120	source and destination
0.4092216040	computation method
0.4092038009	reduced power
0.4091757740	qos level
0.4091010439	delay and energy
0.4090838249	type methods
0.4090453216	paper suggests
0.4090439661	computational techniques
0.4090131585	space division
0.4090056710	advantages and drawbacks
0.4090020272	efficient techniques
0.4089580676	high flexibility
0.4089377001	automotive domain
0.4088988182	digital conversion
0.4088311924	sharing systems
0.4088255952	increasingly important role
0.4088200625	main technical
0.4087945155	enables users
0.4086974843	studies conducted
0.4086069843	two thirds
0.4085782058	this special issue
0.4085244458	method produces
0.4084673704	objective evolutionary algorithms
0.4084461434	diversity systems
0.4083641390	share common
0.4082701148	model calibration
0.4082452244	2006 pp
0.4082277299	networking applications
0.4081740666	theoretic framework
0.4081689134	3d graphics
0.4081590350	learning approaches
0.4081543201	theoretical analysis and experimental results
0.4081129948	self learning
0.4080772542	level modeling
0.4080048529	design concept
0.4079547178	scheduling mechanisms
0.4079429125	software framework
0.4079365200	important features
0.4079077744	comparative evaluation
0.4078829110	temporal and spatial
0.4077974757	order tensor
0.4077047097	simple yet efficient
0.4076834366	computed in polynomial
0.4076666302	geometric model
0.4076643094	tracking scheme
0.4076287903	network state
0.4076133981	problems encountered
0.4075839000	status information
0.4075258242	future development
0.4075109066	mobile data
0.4074934967	real world case study
0.4074880626	decoding performance
0.4074624589	equation systems
0.4074615646	modeling tools
0.4074562267	higher reliability
0.4074542821	adaptive web
0.4074243010	acceptance model
0.4073884696	distributed fashion
0.4073449664	detection and localization
0.4072757148	security domain
0.4072659746	new media
0.4072494889	automatically identify
0.4072191228	coding methods
0.4071624267	modeling and verification
0.4071475526	in section iv
0.4069930255	network communication
0.4069868850	dynamic state
0.4069745054	mining applications
0.4069157567	reducing power
0.4068825174	efficient iterative
0.4068712882	adaptive dynamic
0.4067341918	heterogeneous access
0.4066713270	layer 2
0.4066282173	point problem
0.4065503469	dynamically change
0.4065197138	ease of implementation
0.4065014126	design activities
0.4065003749	task complexity
0.4064875451	based model
0.4064287248	unless pnp
0.4063763710	l diversity
0.4062793514	owl 2
0.4062679308	generate high quality
0.4062652513	an intelligent agent
0.4062480690	evolutionary model
0.4062309322	user interest
0.4062255294	modelling and simulation
0.4061364160	service bus
0.4061125863	non uniformly
0.4060183009	products and services
0.4060078620	large spatial
0.4059507607	decoding method
0.4058782082	field data
0.4058298660	input images
0.4057870573	scheduling approach
0.4057064712	previous result
0.4056647055	uml activity
0.4055845914	dilemma game
0.4055805464	n m
0.4054107656	allocation of resources
0.4053895309	processing technique
0.4053882468	distributed implementation
0.4053713159	support threshold
0.4052987172	explicit expressions
0.4052927498	quality models
0.4052858845	simple design
0.4052398517	modeling and simulation
0.4052017107	per node
0.4052011256	quickly and accurately
0.4051973128	robust h
0.4051737559	high level of abstraction
0.4051704531	non blocking
0.4051301692	multiple channel
0.4050639676	increased accuracy
0.4050581602	computational tasks
0.4050307594	tree algorithm
0.4049934552	probabilistic latent
0.4049300383	wireless services
0.4047957430	small and large
0.4047305727	decision method
0.4046614948	approximation technique
0.4046549995	life like
0.4046301209	alignment based
0.4046178349	semantic relations between
0.4044741116	framework enables
0.4044575894	hierarchical control
0.4044450909	web 20 tools
0.4042983571	network transmission
0.4042553402	fully understand
0.4042082894	nodes and links
0.4041618448	service rate
0.4041571384	machine vm
0.4041267225	hands on
0.4040913480	sub optimal
0.4040609911	cost functional
0.4040311409	highly heterogeneous
0.4040135656	data link
0.4039927247	e g
0.4039318313	hardware and software
0.4038914466	vision problems
0.4038587798	goal based
0.4037345036	general applicability
0.4036459326	j m
0.4035216204	multiple images
0.4034316907	presence of noise
0.4034198963	context data
0.4033930296	collaborative information
0.4033580847	data envelopment
0.4033478944	decoding schemes
0.4033449664	analytical and numerical
0.4033319183	domain models
0.4033133922	girth at least
0.4032867108	hundreds of thousands
0.4032412403	basic problem
0.4032186410	future works
0.4032128641	research domain
0.4031821496	delay systems
0.4031583970	tolerant network
0.4031404709	programming tools
0.4031376765	binary symmetric
0.4030751333	decision scheme
0.4030595732	bam neural networks with
0.4030493703	computing architectures
0.4030416655	number of neighbors
0.4030364786	great importance
0.4030215739	3 dimensional
0.4029165966	peer based
0.4028967799	polymorphisms snps
0.4028853474	technology nodes
0.4028321129	or vice versa
0.4028182016	interoperability for microwave access
0.4027751657	paper elaborates
0.4027651234	increasing demands
0.4027560023	scalability problem
0.4027551047	method improves
0.4027268603	analysis suggests
0.4027242426	protection systems
0.4026899674	scientific and engineering
0.4026331660	system level
0.4026072319	gaussian models
0.4025757713	simplified version
0.4025212732	performance efficiency
0.4025092795	testing method
0.4024971951	performance evaluation shows
0.4023505302	2 d
0.4023335594	positive rate
0.4023080088	main goals
0.4022029709	classification and regression
0.4021843436	approach combining
0.4021512007	prediction performance
0.4021199664	similar performance
0.4020949330	synthetic and real world data
0.4020738632	power ratio papr
0.4020591504	low power high
0.4020553563	mode of operation
0.4020490930	planning algorithm
0.4020217675	supported collaborative
0.4020183009	training and testing
0.4019850614	rich source
0.4019175197	original source
0.4019081874	giving rise to
0.4018983438	shows promising results
0.4018767501	theoretical analysis and simulation results
0.4018524931	delay differential
0.4018418316	acquisition process
0.4016850888	mapping technique
0.4016812355	flow problems
0.4016797793	differential gene
0.4016567675	efficient distributed
0.4015853075	2008 wiley periodicals
0.4013745438	quadratic cost
0.4013708701	improves performance
0.4013347440	random sample
0.4013156455	users location
0.4013061578	ir systems
0.4012839545	fuzzy multiple
0.4012564941	communication capabilities
0.4012328967	a neural network based
0.4012185576	target signal
0.4012097620	image retrieval system
0.4011727363	code analysis
0.4011536279	sparse data
0.4011506025	communication models
0.4011227672	simulation results showed
0.4011007612	university of technology
0.4010976343	neural networks based
0.4010933839	service modeling
0.4010604808	tree algorithms
0.4009001462	framework includes
0.4008838932	random sequences
0.4008230084	nn based
0.4007948158	static and dynamic
0.4007134226	study shows
0.4006775930	coding strategy
0.4006680260	based segmentation
0.4006086666	nodes and edges
0.4004824298	interaction models
0.4004729103	graphs with maximum
0.4004390438	body of knowledge
0.4004112116	significant gain
0.4004074744	significant implications
0.4004040515	management software
0.4003800092	web based tool
0.4003405710	issues arising
0.4003314015	knowledge based system
0.4002804636	artificial data
0.4002662512	framework named
0.4002535114	experimentally compare
0.4002379428	solutions of nonlinear
0.4002367574	probabilistic approach
0.4002208337	tends to infinity
0.4002053370	efficient scalable
0.4001771974	equal error
0.4001482214	one hop
0.4001159768	web of data
0.4000561979	planning method
0.4000555808	accurate classification
0.4000477017	graph g
0.4000147487	color model
0.4000135018	learning paradigm
0.4000117853	search range
0.3999930972	face recognition using
0.3999538622	location systems
0.3999417805	l 1
0.3998595758	performance measurements
0.3997936297	classification and clustering
0.3997662858	compensation algorithm
0.3997652543	co location
0.3997488339	detection and segmentation
0.3996931675	research and practice
0.3996650262	equations of motion
0.3996434646	advanced techniques
0.3996108545	using discrete wavelet transform
0.3995989133	source and channel
0.3995883373	study investigates
0.3995725491	clustering solutions
0.3995222548	numerical experiments demonstrate
0.3995035503	optimal dynamic
0.3994987511	feature sizes
0.3994884576	secure web
0.3994868521	online course
0.3994805587	tolerance mechanisms
0.3994253090	continuous function
0.3994155006	clustering and classification
0.3993640652	method for solving
0.3992178564	emerging applications
0.3992049398	visual image
0.3991209436	three valued
0.3991206266	active appearance
0.3990679497	historical information
0.3990623917	designed and fabricated
0.3990316566	agent framework
0.3990275389	typically require
0.3990167133	strength rss
0.3990096594	method employs
0.3989785129	end to end packet
0.3989439051	improved algorithm
0.3989120889	process automation
0.3988960734	chip power
0.3988739393	potential problems
0.3988682772	fourier transform fft
0.3988672560	sample covariance
0.3988607271	navigation system
0.3988363826	easy to understand
0.3988341235	general case
0.3988181639	sheds light on
0.3988030868	extraction and classification
0.3987653625	prediction algorithms
0.3987312149	r package
0.3987282194	control structures
0.3987119612	situ measurements
0.3986695731	probabilistic data
0.3986618845	dynamic neural
0.3986485378	3d face recognition
0.3986421044	communication and computation
0.3986407489	extensive experimental results
0.3986145371	received signal to noise
0.3985990177	models of human
0.3985985303	envelopment analysis
0.3985768086	method yields
0.3985288381	cause and effect
0.3985287572	exact methods
0.3985047724	best response
0.3984905330	self training
0.3984326526	research and development
0.3984251175	ever changing
0.3984050912	experiments reveal
0.3983322105	an efficient
0.3983052796	linear combinations
0.3982798948	critical applications
0.3982533579	logic based approach
0.3982377911	authors propose
0.3981946360	computational systems
0.3981846933	experimental results demonstrated
0.3981725817	monitoring application
0.3981564497	examples illustrate
0.3980986258	article focuses
0.3980145755	specific properties
0.3979736030	formal framework
0.3979350435	based indexing
0.3979104681	online survey
0.3979065437	receiver based
0.3978721794	reasoning about
0.3978150120	distribution based
0.3978144265	reliable detection
0.3977453936	spatial variations
0.3976720740	real applications
0.3976420310	based systems
0.3975899419	efficiently solve
0.3975491712	extensive computational
0.3975355923	modified version
0.3975194246	linear function
0.3975042053	runtime performance
0.3974916735	oriented applications
0.3974361474	state analysis
0.3973812199	multiple dimensions
0.3973603858	approximate model
0.3973265074	pulse amplitude
0.3972782997	search and retrieval
0.3972429150	method combines
0.3972000064	classification rates
0.3971884732	scalable approach
0.3971652840	design objectives
0.3971396562	identity information
0.3971366255	dimensional data
0.3970937792	machine translation smt
0.3970471399	experimental result
0.3970253825	methods require
0.3969983596	modeling and analyzing
0.3969949510	bits per
0.3969240373	visual analysis
0.3969240197	laboratory experiment
0.3968616100	cost performance
0.3968257570	signal and noise
0.3968029368	large distributed
0.3967909187	modern web
0.3967389732	main features
0.3967352763	on line signature
0.3966938089	complementary information
0.3966893949	real time operating system
0.3966705575	training methods
0.3966618360	coordinate system
0.3966500427	robust algorithm
0.3966275642	c c
0.3965890514	rigorous analysis
0.3965000770	neuro fuzzy inference
0.3964355492	type 2
0.3963935078	many valued
0.3963934498	system identification
0.3963912506	present efficient algorithms
0.3963489225	algorithm solves
0.3962712277	non interference
0.3962565236	on board
0.3962436685	boundary value
0.3961582888	design implementation
0.3961572469	learning phase
0.3961503504	business information
0.3960743315	classification and retrieval
0.3960655644	general architecture
0.3959587508	digital converter adc
0.3959457613	efficient image
0.3958806543	inference method
0.3958729604	attitude towards
0.3958246862	lower and upper
0.3957995954	preference model
0.3957524208	sharing information
0.3957033438	ant system
0.3956986685	efficient multi
0.3956629972	underlying graph
0.3956390101	bottom up and top down
0.3955914154	discrete and distributed
0.3955638440	fast and accurate
0.3955370984	inference process
0.3955169767	extensive experimental
0.3955017072	design and deployment
0.3954883799	services offered
0.3954488306	based protocols
0.3953396510	measurement system
0.3953309303	simulation techniques
0.3952957430	quality and efficiency
0.3952580883	reliability issues
0.3952228479	related research
0.3951946833	computational study
0.3951092452	formulated and solved
0.3950909768	performance and energy
0.3950820338	distributed solution
0.3950631296	data sparsity
0.3950575710	algorithm takes
0.3949365873	go terms
0.3949352646	policy analysis
0.3949321326	prediction problems
0.3948799105	paper puts
0.3948586628	partial knowledge
0.3948113447	representation and reasoning
0.3948025050	planning algorithms
0.3947722737	years old
0.3947514403	rich internet
0.3946359801	network deployment
0.3945687426	candidate solution
0.3944921053	optimization process
0.3944601531	communication paradigm
0.3944504348	industrial software
0.3944193821	process flow
0.3944171006	assignment method
0.3943364128	p 005
0.3943006056	tracking system
0.3942643715	observed signal
0.3942642181	simple closed
0.3942613374	temporal evolution
0.3942594196	detect and track
0.3942591763	reconstruction methods
0.3942380152	a numerical study
0.3942370097	communication system
0.3941736150	main issue
0.3941515107	abstract models
0.3941242387	power and energy
0.3940963321	data collections
0.3940381721	parallel and distributed
0.3940289279	g g
0.3940064346	solution procedures
0.3940045330	desired properties
0.3938943605	specific target
0.3938701556	energy functions
0.3938326238	algorithm based
0.3937246801	linear and nonlinear
0.3937142817	estimation and tracking
0.3937060950	growing popularity
0.3936571455	factors including
0.3936356009	accurate models
0.3935053182	testing process
0.3935047494	providing support
0.3934995727	delivery systems
0.3934963949	a genetic algorithm based
0.3934111593	dynamic fuzzy
0.3933661420	space requirements
0.3933562872	test environment
0.3933546999	network properties
0.3933452177	recursive least
0.3933036308	et al 2003
0.3932949664	web of science
0.3932867408	expensive and time consuming
0.3932841551	evolutionary method
0.3932449753	real time implementation
0.3932323966	signal to interference and noise
0.3932072727	improve throughput
0.3931734325	value iteration
0.3931473059	element model
0.3931007353	current solutions
0.3930862010	nearly optimal
0.3930572663	model predictions
0.3930130317	next steps
0.3930063574	mean value
0.3929902982	input and output
0.3929886145	operator based
0.3929838999	decision algorithm
0.3929591733	characteristic features
0.3929505767	computed efficiently
0.3929133727	efficient computation
0.3928630555	large database
0.3927903497	an interactive visualization
0.3927825044	x x
0.3927204096	important issue
0.3927069763	uwb system
0.3926945712	modeling and control
0.3926300879	two dimensional 2d
0.3926276091	designing and implementing
0.3926262493	proposed protocol
0.3925654198	problem domain
0.3925475317	recent trends
0.3925188135	analysis and comparison
0.3925122194	surface based
0.3925011499	dynamic knowledge
0.3923721074	stability and robustness
0.3923573140	integrated environment
0.3922060417	results also suggest
0.3921788524	efficiently handle
0.3921748239	optical data
0.3921204930	significantly improving
0.3921172092	recurrent neural networks with
0.3920941604	frequency domains
0.3920838565	related features
0.3920776668	verification method
0.3920176457	practice based
0.3919756769	full length
0.3919668085	interference plus noise ratio
0.3919618310	common spatial
0.3918906683	intensity information
0.3918862074	matching problems
0.3918630446	operational environment
0.3918507236	initial solution
0.3918369351	proposed schemes
0.3918358624	systems with time varying
0.3917639727	sound and complete
0.3916464083	huge data
0.3915844824	simulation results suggest
0.3914883787	recognition method
0.3914826421	freely available
0.3914702434	communication applications
0.3914673174	optimal parameters
0.3914087996	experimental results showing
0.3914041030	systems of linear
0.3913915123	suggestions for future
0.3913857086	technology based
0.3913396615	temporal characteristics
0.3913235394	functional test
0.3913217735	evaluation technique
0.3912762610	self interested
0.3912614050	important factor
0.3912377760	field model
0.3912157240	recognition of human
0.3912047786	annotation based
0.3911846288	co processor
0.3911605621	real world problem
0.3911155574	sharing of information
0.3911103057	unsupervised method
0.3910889634	data encryption
0.3910596261	research direction
0.3910433883	attention in recent years
0.3910337007	equation based
0.3909697605	integrate and fire
0.3909405285	design examples
0.3909265671	branching time
0.3909223929	algorithm improves
0.3909010650	recognition and classification
0.3908751668	diffusion problem
0.3908382506	data acquisition system
0.3907423411	theoretical approach
0.3907354684	institute of technology
0.3907192596	modern software
0.3906690345	performance and security
0.3905980642	probability mass
0.3905869114	information architecture
0.3905424538	mobile and wireless
0.3904423488	a probabilistic approach
0.3903703868	sensor network based
0.3903696326	matching techniques
0.3903601223	hybrid automatic repeat
0.3903201552	real line
0.3902690232	objective and subjective
0.3902574704	design and development
0.3901946701	information system
0.3901191869	transmitted signal
0.3900573996	co expressed
0.3900519481	c means
0.3899645732	second order differential
0.3899562990	gram language
0.3899263905	main aim
0.3899260277	snake like
0.3898428889	automatic web
0.3898144549	support service
0.3897696719	negative impact
0.3897589345	increasingly common
0.3895809889	chip multi
0.3895653995	control system design
0.3894712945	complex interactions
0.3893799375	simple examples
0.3893779910	path analysis
0.3893364200	delay and power
0.3892574704	analysis and design
0.3892417018	transform dwt
0.3892308103	paper revisits
0.3892156864	radio technology
0.3891969861	filter method
0.3891904256	loss model
0.3891903347	detailed information
0.3891836164	non cooperative
0.3891474384	direct volume
0.3891306685	categories and subject
0.3891030114	convergence and stability
0.3890819209	computational framework
0.3890529017	paper explores
0.3890503317	k sat
0.3890381721	image and video
0.3889884455	mining method
0.3889710781	service requirements
0.3887954464	protocol named
0.3887854067	k l
0.3887464684	simple yet effective
0.3887363741	peak to average power
0.3887111095	common goal
0.3887033406	results of simulation
0.3886623917	trained and tested
0.3886350812	m learning
0.3886166765	robotic system
0.3885902045	groups of users
0.3885644977	two step
0.3885441998	3d face
0.3885338589	human knowledge
0.3884663931	hybrid approaches
0.3884553808	estimation performance
0.3884053688	comparison method
0.3884018570	energy sources
0.3883788425	performance and power
0.3883664899	highly available
0.3883560919	flow of information
0.3883207083	non smooth
0.3883187983	user data
0.3883124031	opportunities and challenges
0.3882959887	empirical performance
0.3882050959	k coverage
0.3881932915	static type
0.3881170000	designing efficient
0.3880866649	next hop
0.3880685124	three dimensional 3d
0.3880362942	mode control
0.3880001975	issues and challenges
0.3879527210	standard benchmark
0.3879415685	sheds light
0.3879038066	processing nlp
0.3878923314	r r
0.3878473938	local network
0.3877384699	computational results
0.3877343730	graphs of order
0.3876720958	flat rayleigh
0.3875473047	existing systems
0.3875168582	non commutative
0.3875158903	spatial model
0.3875105588	parallel software
0.3874723015	point tracking
0.3874626662	factors involved
0.3874461450	linear block
0.3873951156	extremely complex
0.3873602800	the middle attack
0.3873593693	motion models
0.3873584914	3d mesh
0.3873449706	incremental approach
0.3873271087	recognition approach
0.3872925182	past few years
0.3872758943	module based
0.3872129337	node energy
0.3872025140	measurement and analysis
0.3871262874	human effort
0.3870967672	interface development
0.3870104574	past decade
0.3869958250	algorithm reduces
0.3869894714	x n
0.3869407817	distributed spectrum
0.3869323195	graph of order
0.3868741040	vast amounts of
0.3868729948	structure design
0.3867843390	approximation schemes
0.3867626782	careful analysis
0.3867393670	design and test
0.3867253403	probability models
0.3867176044	interpolation based
0.3867127778	key characteristics
0.3866697414	achieve high performance
0.3866272359	traffic models
0.3866195257	detection and recognition
0.3866007167	inference methods
0.3865570475	heterogeneous wireless sensor
0.3864403130	stability and convergence
0.3863690800	real users
0.3863060005	an elliptic curve
0.3862584146	performance and complexity
0.3862055304	theoretical and empirical
0.3862025140	identification and control
0.3861586609	region of interest
0.3861525107	specific models
0.3859794504	design and implementation
0.3859679678	ability to predict
0.3859403130	communication and collaboration
0.3859250813	evaluation and selection
0.3859216921	detection and classification
0.3859117993	hellman assumption
0.3859025508	improved approximation
0.3858857726	design and simulation
0.3858836318	stable equilibrium
0.3858638971	previous solutions
0.3858567391	real networks
0.3858334490	an experimental comparison
0.3858175148	non line of sight
0.3858022872	recently emerged
0.3858015327	pass filtering
0.3857567573	invariant face
0.3857482602	scale fading
0.3857355512	results on real world
0.3857280918	registration algorithms
0.3857151798	based algorithms
0.3856945712	virtual and real
0.3856794951	knowledge and experience
0.3856702820	body model
0.3856052008	an ad hoc network
0.3855944264	control performance
0.3855566771	network attacks
0.3855160769	complex software
0.3854998816	performance and efficiency
0.3854897039	scheduling model
0.3854696470	real time operating
0.3853875505	main purpose
0.3853663515	network infrastructures
0.3853497815	rate and power
0.3852649280	mathematical tools
0.3852359671	location data
0.3852138670	optimization algorithm based
0.3851738576	collaborative software
0.3851717631	adaptation algorithm
0.3851435302	fuzzy c
0.3851113805	recent results
0.3850443728	identification performance
0.3850137103	likelihood estimator
0.3848962875	primary network
0.3848962592	visualization and analysis
0.3848169134	limited communication
0.3847964872	image segmentation using
0.3847910593	system level simulation
0.3847841619	complex real world
0.3847732068	2009 special issue
0.3847554073	potential solutions
0.3847230541	state model
0.3847056475	exact values
0.3846859940	sampling algorithm
0.3846712991	wider range
0.3846395959	relies heavily on
0.3845837576	challenges include
0.3845800452	analysis and optimization
0.3845788057	flow conditions
0.3845503362	attitude toward
0.3845503346	pass through
0.3845456416	design quality
0.3845205017	high costs
0.3845140812	positioning system gps
0.3845099441	web based information
0.3844970619	local and global
0.3844528590	design and analysis
0.3843828107	real and virtual
0.3843769938	tests performed
0.3843647338	source and target
0.3843614200	modelling and analysis
0.3843206994	80211 based wireless
0.3842659667	sensing technology
0.3842635030	increasingly important
0.3840145520	development method
0.3839897659	paper extends
0.3839633980	proposed scheme achieves
0.3839363447	development and validation
0.3839206933	rank 1
0.3839144401	multiple input single
0.3839092796	pre process
0.3838864258	simulation and optimization
0.3838744952	great deal of attention
0.3838372317	an overview
0.3837584398	performances in terms
0.3837383913	difficult task
0.3837237870	authentication process
0.3836787978	80211 mac
0.3836734018	fuzzy cognitive
0.3836668226	constrained wireless sensor
0.3836416992	dynamic interaction
0.3836294728	mimo system
0.3836103956	real time services
0.3835612131	a heuristic approach
0.3835475431	data transformation
0.3835470098	inner and outer
0.3835421614	service class
0.3835145924	transformation method
0.3834741284	business data
0.3834253937	near real time
0.3833969089	hidden data
0.3833938663	k 1
0.3833402819	estimation models
0.3833330522	delivery network
0.3832741048	action based
0.3832711263	become increasingly popular
0.3832632360	protocols for wireless
0.3832568711	dynamic and static
0.3832290275	vehicle communication
0.3832237395	ims learning
0.3832167436	sources of information
0.3831664860	cover classification
0.3831633380	distributed knowledge
0.3831148756	training and test
0.3830464164	testing data
0.3830317714	representation model
0.3830071319	computer society
0.3829723568	line of research
0.3829676569	sensitive applications
0.3829541382	varying degrees
0.3828986430	ratios snrs
0.3828456990	circuits and systems
0.3828125149	carrier code division multiple access
0.3828035781	training systems
0.3827791959	creation process
0.3827766938	rely heavily on
0.3827701476	algorithm for solving
0.3827584508	ever growing
0.3827286990	start and end
0.3826703852	solving problems
0.3826610073	efficient resource
0.3826512545	detection and identification
0.3825763178	adaptation algorithms
0.3824919412	peak to average
0.3823494011	fast motion
0.3821986402	information and services
0.3821869396	chain model
0.3821126686	model structure
0.3820598706	analysis and classification
0.3820328651	time horizon
0.3820182868	constrained linear
0.3820149364	design and control
0.3819322228	interplay between
0.3818924120	development activities
0.3818922589	making sense of
0.3818536004	self report
0.3818460486	power and rate
0.3818209135	data management system
0.3818030316	accuracy and performance
0.3816379368	study demonstrates
0.3816050613	learning problem
0.3815992772	communication model
0.3814391173	programming ilp
0.3814311767	plug in
0.3813214623	hierarchical data
0.3812950458	design and optimization
0.3812597924	detection model
0.3812087041	response systems
0.3811808525	bias temperature
0.3811688851	efficient execution
0.3811075158	optimization schemes
0.3810893165	electrical properties
0.3810594113	becoming increasingly important
0.3810542864	achieve high throughput
0.3810449423	multiple tasks
0.3809721913	general model
0.3809720734	robust solution
0.3809603236	control approaches
0.3809598606	multiple services
0.3809034655	estimation model
0.3809021465	stochastic neural networks
0.3808864093	tree problem
0.3808694692	random geometric
0.3808677244	data bank
0.3808315836	designing and developing
0.3808015446	learning platforms
0.3807974609	full reference
0.3807822241	order of accuracy
0.3807796079	an exploratory
0.3807083123	applied successfully
0.3806430971	ranking based
0.3806201089	using fuzzy logic
0.3804899364	design and construction
0.3804719561	hybrid optimization
0.3804488159	future applications
0.3804423362	network condition
0.3804240071	body of research
0.3803027657	burst switching
0.3802692744	rate of convergence
0.3802453409	of view fov
0.3802417540	modeling software
0.3802184643	view images
0.3802144281	control protocols
0.3801986402	area and performance
0.3801785351	testing methods
0.3801750219	large variations
0.3801128013	weighted linear
0.3800836028	image retrieval using
0.3800453017	reasoning techniques
0.3799871874	resources and services
0.3799356300	nn model
0.3799181860	minimize energy consumption
0.3798567790	current network
0.3798552205	theoretical performance
0.3798501121	full coverage
0.3798223148	prototype based
0.3798050009	structured interviews
0.3798026911	secure data
0.3797978101	o log n
0.3797326140	digital assistants
0.3796932052	management tasks
0.3795882984	machines svms
0.3795842545	powerful and flexible
0.3795693337	two level
0.3795453848	erp system
0.3795355874	level control
0.3794779278	first person
0.3794310696	driven systems
0.3793813064	analysis and experimental results
0.3791908278	solution concept
0.3791507590	private networks
0.3790787989	analysis and visualization
0.3790645253	class of graphs
0.3790084080	total expected
0.3789706154	technology advances
0.3789639329	image retrieval cbir
0.3789504019	force based
0.3789357305	control task
0.3788735535	an analytical approach
0.3788237642	control processes
0.3787285633	matrix method
0.3787042022	benchmark data
0.3786398449	sensor design
0.3786132876	cooperation scheme
0.3785984012	modular approach
0.3785622963	current techniques
0.3785562813	using hidden markov models
0.3784999277	geometric properties
0.3784899364	processing and analysis
0.3784769310	secure and efficient
0.3784746978	feasibility and validity
0.3783941922	static images
0.3783708383	management of information
0.3783061181	based game
0.3783025347	optimal parameter
0.3782993171	transmission over wireless
0.3782338870	cost optimization
0.3782056444	a field study
0.3781833225	significant change
0.3781624076	nonlinear discrete time
0.3781218287	key encryption
0.3780443151	mathematical properties
0.3780323559	balancing scheme
0.3779997015	image retrieval systems
0.3779440163	monitoring and control
0.3779151917	pair of nodes
0.3778919105	efficient and accurate
0.3778488282	class information
0.3778398571	gaussian random
0.3777569531	model development
0.3777357427	quality parameters
0.3777159523	3d shape
0.3776733493	adaptive scheme
0.3776662162	one way functions
0.3776028668	frequency block
0.3775414678	integration approach
0.3775295077	proposed scheme outperforms
0.3775116297	data samples
0.3774882954	x t
0.3773882928	efficient and secure
0.3773778890	data transmissions
0.3773723945	research suggests
0.3773269398	publicly available
0.3773123872	data products
0.3773108203	performance tests
0.3772983326	paper applies
0.3772935983	error signal
0.3772848673	assist users
0.3772687165	discovery algorithm
0.3772610944	quality based
0.3772249850	computationally complex
0.3772128612	planning techniques
0.3771778405	least squares problem
0.3771643769	ad hoc networks manets
0.3771262794	far reaching
0.3770633773	speed of convergence
0.3769941281	aided detection
0.3768828157	distributed hash
0.3768786700	existing studies
0.3768735485	great variety
0.3768416656	stability results
0.3768380412	capable of handling
0.3767538199	potential users
0.3767430014	the past decade
0.3766975086	k connected
0.3765414763	analysis showed
0.3765149364	rate and low
0.3765079438	experimental methods
0.3764389546	current methods
0.3764194894	recognition system
0.3763950133	frequency distribution
0.3763882928	scalable and efficient
0.3763484389	stability and performance
0.3763292617	coded genetic algorithm
0.3763245978	monitoring data
0.3762736119	transform dft
0.3762335608	modeling and analysis
0.3761522504	key properties
0.3761320324	area delay
0.3761228091	closed form expressions for
0.3761213151	powerful tools
0.3760450461	peer to peer file
0.3760124447	simulation approaches
0.3760015400	enhanced performance
0.3759839963	production system
0.3759717753	scale to large
0.3759392999	optical coherence
0.3759169008	mode controller
0.3759124775	emerging research
0.3758962592	control and management
0.3758790589	automatic methods
0.3758787989	applications and services
0.3757936577	localization process
0.3757689180	identification approach
0.3757666819	v g
0.3756814799	analysis and evaluation
0.3756683723	industrial application
0.3756316467	tracking methods
0.3756223007	ms data
0.3755986626	24 hours
0.3755721113	cost structure
0.3755636235	theory and practice
0.3754933943	dramatic increase
0.3754842450	reaction time
0.3754744410	adaptation techniques
0.3754406820	computational performance
0.3753933936	analysis and implementation
0.3753651336	a statistical approach
0.3753380795	attractive features
0.3753362472	mapped onto
0.3752968240	design and realization
0.3752665979	fuzzy control system
0.3752350898	important information
0.3752121322	systems of equations
0.3752118008	programming formulations
0.3751460298	exposure time
0.3750776766	algorithm generates
0.3750748306	security and performance
0.3750282726	metric called
0.3749853817	analysis approach
0.3749314799	development and implementation
0.3748801434	theoretical properties
0.3748708383	selection and classification
0.3748560727	special characteristics
0.3748365782	information requirements
0.3748317666	algorithm to automatically
0.3748281638	immune systems
0.3747829387	recognition methods
0.3747595597	image structure
0.3746925309	estimation process
0.3746699591	development and deployment
0.3746390061	well documented
0.3746365022	f t
0.3746215742	close to optimal
0.3745629259	state and input
0.3744267790	matrix estimation
0.3743940878	effectively identify
0.3743584908	far away
0.3743505752	model tam
0.3743000618	dynamic programming based
0.3742755576	mesh models
0.3742467142	non expert users
0.3741989580	computation efficiency
0.3741437146	deciding whether
0.3741288821	access hsdpa
0.3741030114	efficiency and reliability
0.3740495604	low computational
0.3740484389	architecture and implementation
0.3739860343	squares regression
0.3739240476	proposed method outperforms
0.3739079284	oriented architectures
0.3738787989	techniques and tools
0.3738522178	accuracy and stability
0.3738103711	results of experiments
0.3738095773	highly non linear
0.3737640716	proposed methodology
0.3737094931	advantages and limitations
0.3736882417	graph g v e
0.3736187000	transmission of data
0.3734972453	authors present
0.3734802324	changing requirements
0.3734796313	constant approximation
0.3734621105	signal noise
0.3734591486	level of detail
0.3734379028	complex multi
0.3733484389	management and control
0.3733390278	transition model
0.3732720577	process of designing
0.3732381505	oriented development
0.3731643279	asr systems
0.3731318825	development and testing
0.3731016644	using machine learning techniques
0.3730484389	computing and communication
0.3729875407	model formulation
0.3727229895	planning based
0.3726684076	complexity and performance
0.3726580506	based solution
0.3726504650	simple greedy
0.3725430574	generating test
0.3725096270	ofdm systems with
0.3725071288	computation and communication
0.3724203804	based design
0.3724039149	delay and packet
0.3723877180	desirable features
0.3723691773	complexity increases
0.3723240987	efficient clustering
0.3722995990	ca 2
0.3722288659	previously obtained
0.3721654533	interface bci
0.3721362297	estimation approach
0.3721117287	neural networks and support vector
0.3720787989	design and evaluation
0.3720748306	simulation and analysis
0.3720687582	reliability and performance
0.3720105748	critical role
0.3719466950	huge amounts of
0.3719179488	well understood
0.3719087366	non symmetric
0.3718546231	checking algorithm
0.3718142907	and vice versa
0.3718041022	device architecture
0.3717814813	on chip communication
0.3717604325	high peak to average power ratio
0.3715747371	mode decomposition
0.3714445663	network data
0.3714078074	modulation and coding amc
0.3713986044	social environment
0.3713543238	current and future
0.3712697708	easily extended
0.3710186292	destination pairs
0.3709937113	data accesses
0.3709268363	large scale wireless
0.3708736565	level model
0.3708456337	s n
0.3707921933	compression based
0.3707525906	process of knowledge
0.3706978547	management problems
0.3706820101	using artificial neural network
0.3706756596	collaborative approach
0.3706705455	power control algorithm
0.3706701083	routing for wireless
0.3706656341	architecture and design
0.3705637892	directly applicable
0.3704921050	a feasibility study
0.3704795711	power performance
0.3704768788	practical scenarios
0.3704527259	adaptive hybrid
0.3704097286	primary objective
0.3703420665	methods and tools
0.3702903944	saving mechanism
0.3702487257	model and analyze
0.3702187839	detection and estimation
0.3702086236	laboratory environment
0.3701371838	likelihood approach
0.3700527852	large instances
0.3700034960	prediction techniques
0.3699863130	method performs
0.3699269882	real time processing
0.3698903509	fusion model
0.3697786990	simple and intuitive
0.3696978594	filtering process
0.3696656341	design and management
0.3696577784	real time detection
0.3696529447	analysis results
0.3696337893	et al 2001
0.3696255027	linear systems with
0.3696221253	exchange of information
0.3696218468	results of applying
0.3695618850	2007 pp
0.3694982721	component analysis pca
0.3694760750	user detection
0.3694075829	signal processor
0.3694038622	intelligent algorithm
0.3693951349	processing applications
0.3693817008	analysis and verification
0.3693505526	considerable research
0.3692744272	fundamental problems
0.3692664163	learning mechanisms
0.3692229821	number of sensor nodes
0.3691799618	basic components
0.3690650056	time consuming
0.3690026057	storing data
0.3689879882	o n 2
0.3689873032	important characteristics
0.3689586499	time interval
0.3689430792	science community
0.3689002367	information feedback
0.3688871195	applications including
0.3688481162	large scale sensor
0.3688064375	80211 wlan
0.3687340301	scalability and performance
0.3687036554	result improves
0.3686709570	non separable
0.3686262187	mimo systems with
0.3685923927	information resource
0.3685831070	advanced features
0.3685809813	challenging problems
0.3685188001	tools and techniques
0.3685066171	servo system
0.3684734668	correlation coefficient between
0.3684151130	learning and knowledge
0.3684089412	simple model
0.3684023168	very large
0.3683854489	network controller
0.3683849514	structural results
0.3683597358	transformation technique
0.3683466393	resolution based
0.3683218907	distributed query
0.3682658122	performance and scalability
0.3681661562	management technology
0.3681440070	detect malicious
0.3681071652	years of research
0.3680948905	information and communication
0.3680768546	information behavior
0.3680330502	problems including
0.3680015588	a graph based
0.3678785594	nonlinear mapping
0.3678735932	group of agents
0.3678588888	took place
0.3678405188	system on chips
0.3677747314	real time object
0.3677468099	implementation and evaluation
0.3677171543	an empirical analysis
0.3677075162	interactive web
0.3676986437	forward error
0.3675236789	research data
0.3675118948	expression values
0.3674863531	real object
0.3674766251	network technologies
0.3674763875	aims to provide
0.3674702170	learning support
0.3674121911	single target
0.3674053959	noise awgn
0.3674046331	renewed interest
0.3673652684	real time performance
0.3673521335	source of information
0.3672620426	colony algorithm
0.3672102722	2 dimensional
0.3671487080	type 1
0.3671457817	8 core
0.3671177726	number of bits
0.3671000349	varying delays
0.3670402506	multiple object
0.3669583875	rbf neural
0.3669573791	target bit
0.3669423677	enterprise data
0.3669398504	an online survey
0.3669370386	research domains
0.3669346579	users activities
0.3669217413	based multicast
0.3669014788	genetic algorithm ga based
0.3668995915	substantial improvement
0.3668773725	performance studies
0.3668434288	language semantics
0.3667876232	state markov
0.3667825187	rely heavily
0.3667794310	e commerce web
0.3667503648	frequency based
0.3667318442	year old
0.3666581218	controlled experiment
0.3666537132	two stage algorithm
0.3666297221	control tasks
0.3665791499	latency and high
0.3664708383	wireless and mobile
0.3664529883	processing scheme
0.3664468982	chaotic neural
0.3664212809	introductory computer
0.3664105859	computer architecture
0.3664077166	simulations demonstrate
0.3663547185	a wireless sensor network
0.3663522178	accurate and fast
0.3663385563	higher probability
0.3663160855	mm 2
0.3663144183	a formal framework
0.3662970332	cmos image
0.3662946622	secure against
0.3662905704	free path
0.3662659186	building process
0.3662403645	chaotic system
0.3662102205	theory and applications
0.3662083825	extract features
0.3661745186	controlled natural
0.3661716892	estimated channel
0.3661708442	practical solutions
0.3660805133	mapping techniques
0.3660676754	recognition techniques
0.3660522615	automated tools
0.3659441868	phase based
0.3658455787	search ts
0.3658315939	empirical model
0.3657969017	compare and contrast
0.3657160967	of service dos
0.3656929828	kalman filter ekf
0.3656679193	sampling approach
0.3656671930	vod system
0.3655873427	analysis and synthesis
0.3654879119	shown to outperform
0.3654781660	relevant parameters
0.3654489064	least mean
0.3654175141	multiple virtual
0.3653304122	driven engineering
0.3653007801	application context
0.3652773618	control parameter
0.3651410074	measurement model
0.3651070624	decoding error
0.3650909302	efficiently compute
0.3650104560	comprehensive experiments
0.3649958827	time consuming and error prone
0.3649464923	accurately and efficiently
0.3648963536	evaluation procedure
0.3648939800	disk systems
0.3648606346	r c
0.3648117395	intrinsic properties
0.3647414973	order of convergence
0.3646952912	equilibrium solution
0.3646497392	mentioned above
0.3646373593	university press
0.3645235283	generally considered
0.3644660509	based positioning
0.3644487712	complexity results
0.3644006788	efficiency and robustness
0.3643859730	test scenarios
0.3642637895	piece of information
0.3642572554	complex processes
0.3642279458	exp function
0.3641883698	time to digital converter
0.3641063478	accurate and reliable
0.3640728808	using support vector machine
0.3640148921	linear stochastic
0.3639431418	inference mechanism
0.3639369154	closed loop system
0.3639282153	mobile peer
0.3638320180	complete information
0.3637923263	efficient evaluation
0.3637696849	solomon codes
0.3637674079	area cost
0.3636701504	role played by
0.3636323037	put forward
0.3636320298	paper offers
0.3636252307	enabling technology
0.3636141231	driven software development
0.3636086778	threshold value
0.3636001058	a wireless sensor network wsn
0.3634835785	efficient hardware
0.3634682203	users to easily
0.3634563024	aims at providing
0.3634306566	stochastic optimal
0.3633886190	strategy based
0.3633766498	general scheme
0.3633451802	efficient software
0.3633044975	a model based approach
0.3632594153	global level
0.3632523875	internet use
0.3631939868	performance and robustness
0.3631867390	computational tests
0.3631582736	paper establishes
0.3630292300	messages sent
0.3629771926	voting system
0.3629635935	real time data
0.3628694935	pointed out
0.3628513327	number of cores
0.3628372054	number of subcarriers
0.3627920047	co simulation
0.3627854232	simple distributed
0.3627788274	health data
0.3627617915	improved model
0.3625984821	model called
0.3625733774	ontology design
0.3624666510	efficient packet
0.3624613934	practical cases
0.3624488091	n 1
0.3624138863	service users
0.3623686151	language translation
0.3622615410	2 approximation algorithm
0.3622480354	method involves
0.3622454873	processing algorithms
0.3622301694	line data
0.3621911345	automatic repeat
0.3621869963	derive closed form expressions
0.3621289017	paths problem
0.3621071652	evaluation and comparison
0.3620988587	structure and function
0.3620815164	data instances
0.3620626670	basis function rbf
0.3620496367	2008 pp
0.3620251205	km 2
0.3619292009	grid users
0.3619281101	secure network
0.3618969420	integration methods
0.3618896998	forward neural
0.3618718799	computing framework
0.3618472831	difficult and time consuming
0.3618448915	dominating set of g
0.3618314933	single packet
0.3618121652	key features
0.3617526531	important aspects
0.3617465543	paper derives
0.3617131985	efficient and easy
0.3616088539	solution approaches
0.3615958760	simple mathematical
0.3615627487	efficiency and scalability
0.3615469568	d d
0.3615409367	takes as input
0.3615348345	peak signal
0.3615304414	distribution algorithm
0.3615240738	goes to infinity
0.3614652052	ever increasing
0.3614363741	an enabling technology
0.3614176789	accurate identification
0.3613629845	implementation cost
0.3612984202	disk graph
0.3612588657	reasonable computational
0.3611690187	channel frequency
0.3611342690	quantitative data
0.3611335570	average user
0.3611201324	small overhead
0.3611146366	capable of detecting
0.3610081706	random data
0.3609483433	2 n 1
0.3609374519	projected onto
0.3609364850	mining problem
0.3609177218	sub graph
0.3608938220	orthogonal frequency division multiplexing ofdm system
0.3608646472	refinement algorithm
0.3608479464	p r
0.3608107026	efficient key
0.3607883570	generation model
0.3607300678	this special section
0.3606978186	stochastic neural networks with
0.3606963359	process of learning
0.3606951802	80211 wireless networks
0.3606328284	ability to learn
0.3606222423	optimization models
0.3605662907	n p
0.3605256820	effectively and efficiently
0.3605085893	driven applications
0.3604792639	experimental results prove
0.3604376111	specific task
0.3603814091	wireless ad
0.3603625055	local level
0.3603230459	based interaction
0.3602596494	significant loss
0.3602026538	brain computer
0.3601531463	real scenarios
0.3601425645	a hidden markov model hmm
0.3601365444	transmitted data
0.3599821582	general principles
0.3599602658	specific knowledge
0.3599002657	related studies
0.3598575923	time windows
0.3598115098	near far
0.3597769635	multiple local
0.3597052948	builds upon
0.3596834822	sensing scheme
0.3596746468	learning scheme
0.3596670722	inc j comput chem 2009
0.3596572965	noise signal
0.3596399074	video information
0.3596209233	easy to learn
0.3596076974	optimal maximum
0.3596026033	detection based
0.3595785045	polynomial time algorithm
0.3595497772	largely ignored
0.3595458445	measure called
0.3595390148	network applications
0.3593229343	search scheme
0.3592246978	directions for future
0.3592232780	deterministic algorithm
0.3591968843	speed up
0.3591735062	static code
0.3591697003	a brief introduction
0.3591605634	function method
0.3590853954	information and communications
0.3590473830	experiments with real
0.3590437641	left or right
0.3590004885	analysis and numerical
0.3589719833	systems of nonlinear
0.3589528359	imaging system
0.3589500618	network link
0.3589405860	k 12
0.3588524787	polynomial time algorithms
0.3588257110	compensation method
0.3588074005	approach improves
0.3587929052	performance and low
0.3587598689	input video
0.3587579518	consists in finding
0.3587451547	extraction approach
0.3587377992	two pass
0.3587140566	active noise
0.3586930362	efficient computational
0.3586328658	digital data
0.3584843545	likelihood estimation
0.3584809983	field based
0.3584127848	processing parameters
0.3583767008	machine learning method
0.3583718393	implementation and performance
0.3583161845	high importance
0.3582072138	real time application
0.3581505356	adaptive neuro
0.3581368930	channel simulation
0.3581242403	tracking approach
0.3580468240	accuracy and reliability
0.3579857627	empirical comparison
0.3579632394	non contact
0.3579569292	implement and evaluate
0.3579214496	propagation based
0.3578364147	network operator
0.3578120902	large and complex
0.3578117035	users requirements
0.3577918883	performance and accuracy
0.3577805042	statistics based
0.3577275021	silicon vias
0.3577045863	biometric system
0.3576644839	quality of services
0.3576565067	specific examples
0.3576060723	multi context
0.3575895644	multiple times
0.3575670804	achievable sum
0.3575080941	major challenge
0.3574512661	an np hard problem
0.3574266262	designed and built
0.3574101000	aims to develop
0.3573422870	robust multi
0.3573417611	a rule based
0.3573374339	large range
0.3573149527	function approach
0.3572965509	memory operations
0.3572388182	real world application
0.3571967419	values of parameters
0.3571498106	elevation model
0.3570964389	description length
0.3570794062	fast and efficient
0.3570644157	strong correlation
0.3570250099	cancer detection
0.3570244671	small constant
0.3570130003	an event driven
0.3569981465	authentication information
0.3569295788	effective in detecting
0.3569024965	algorithm requires
0.3568431641	ability to accurately
0.3567539810	digital multimedia
0.3567538972	physical characteristics
0.3567443150	previous techniques
0.3567275021	homotopy perturbation
0.3567001134	based techniques
0.3566960386	related parameters
0.3566105951	single input multiple
0.3565009784	software infrastructure
0.3564860184	development and evaluation
0.3564796555	function cdf
0.3564550554	optimum performance
0.3564281665	nonlinear differential
0.3563876866	method applies
0.3563795294	control techniques
0.3563601173	e learning environment
0.3562999366	protection against
0.3562842995	practical design
0.3562766408	common case
0.3561970918	p values
0.3561966221	comparison study
0.3561858105	relevant images
0.3561827316	using principal component analysis
0.3561692411	routing method
0.3561571638	at room temperature
0.3561516747	power point
0.3561352003	paper contributes
0.3561247992	numerical approach
0.3560796253	tolerant systems
0.3560722630	unknown nonlinear
0.3560626639	proposed and applied
0.3560428613	dynamic multi
0.3560269387	bus system
0.3560173612	achieve comparable
0.3559242546	market data
0.3558677643	network application
0.3558414509	enable users
0.3558353931	set based
0.3558304985	proposed algorithms
0.3557906899	development and maintenance
0.3557798759	active users
0.3557787318	a conceptual model
0.3557506416	efficient and scalable
0.3557468081	critical issue
0.3556846322	order approximation
0.3556709986	routing technique
0.3556701772	research and application
0.3556701772	design and evaluate
0.3556573905	discovery method
0.3556377487	fast and reliable
0.3556256883	short period
0.3554861731	prior model
0.3553693102	in section iii
0.3553590745	integrated design
0.3553540981	low false positive
0.3553007922	maximum and minimum
0.3553006294	subgraph of g
0.3552831154	control methodology
0.3552306293	k k
0.3551963521	p n
0.3551445294	a formal approach
0.3551259771	word w
0.3551064910	upper bounds on
0.3550999985	web 30
0.3550513243	scheme reduces
0.3550080105	volatility models
0.3549643621	designed and simulated
0.3549313278	simple modification
0.3548492876	computer networks
0.3548167272	cost and high
0.3548009947	memory tm
0.3547539257	popular data
0.3547340272	dual codes
0.3546984864	information search
0.3546573275	efficient channel
0.3546199638	a modular approach
0.3546045244	current knowledge
0.3545818998	structure identification
0.3545415405	paper proves
0.3545242389	real time analysis
0.3545028298	personal learning
0.3544647157	de un
0.3544465930	common attacks
0.3544308929	time division
0.3544308675	key factor
0.3544124493	present experimental results
0.3543288793	application fields
0.3543251064	non planar
0.3543244008	provided to illustrate
0.3543167950	level design
0.3543064303	provide valuable
0.3543043762	effectiveness and robustness
0.3542290645	linear filter
0.3541924077	simulations and experimental
0.3541822569	channel state information at
0.3541375678	based scheduling
0.3540333130	based technique
0.3539736364	a semantic based
0.3539634906	reliability and efficiency
0.3539525855	real time software
0.3539221161	complex and difficult
0.3538120902	analysis and simulation
0.3538024153	software service
0.3537579518	feasibility and effectiveness
0.3537201285	communication requirements
0.3536491271	classification process
0.3536480298	design and application
0.3536479342	organization based
0.3536299583	algorithm for finding
0.3535981063	optimal strategy
0.3535932929	analyze and compare
0.3535226790	important and challenging
0.3534360658	fed back
0.3534032753	built in self
0.3533604282	related potentials
0.3533523962	feasible and effective
0.3533256748	user specified
0.3533254358	a comparison study
0.3532507922	accuracy and robustness
0.3531900731	networks vanets
0.3531348568	large volume
0.3531194500	average packet
0.3530716862	processing framework
0.3530691810	robot systems
0.3530440320	real implementation
0.3530360585	learned model
0.3529213086	mum cmos
0.3529152165	effective and efficient
0.3528973070	under uncertainty
0.3528879854	an intelligent tutoring system
0.3528465314	paper details
0.3527583787	frequency channel
0.3527533090	variable block
0.3527428338	extraction techniques
0.3526614085	re sampling
0.3526284964	talk about
0.3524481839	o n log
0.3523406906	efficiently and effectively
0.3520738081	robust and accurate
0.3520726323	disease ad
0.3520480214	continuous data
0.3520201108	identify relevant
0.3518864220	composition of services
0.3518810054	o n log n
0.3518677769	additional data
0.3518436572	distortion optimization
0.3518336125	comparative experiments
0.3518050205	efficient operation
0.3517912577	cycle time
0.3517783510	top 10
0.3517212391	left and right
0.3517074415	perfect channel state
0.3516891633	class of nonlinear systems
0.3516395098	designed and implemented
0.3516381429	least squares pls
0.3515633122	alignment algorithms
0.3514616317	robust to noise
0.3514427634	single domain
0.3514221420	a user study
0.3514000420	related literature
0.3513354455	based classification
0.3513060363	feature transform
0.3513023825	based feedback
0.3512925774	project aims
0.3512906199	core architectures
0.3512431926	hitting time
0.3512369391	vast amounts
0.3512218826	layer based
0.3512124848	single or multiple
0.3511757111	global knowledge
0.3511549584	inequality lmi
0.3511506764	energy consumed by
0.3511373876	overall energy consumption
0.3511034279	in section ii
0.3510844220	tutoring system
0.3510814371	protocol for mobile ad hoc
0.3510377519	original data
0.3510007922	minimum and maximum
0.3509113885	detection results
0.3509006768	share information
0.3508713499	n vertex
0.3508706508	upper bounded by
0.3508693632	well suited
0.3508622914	analysis approaches
0.3508070053	loop control
0.3507389869	non termination
0.3507247269	effort required
0.3507081923	improve search
0.3506945726	algorithm utilizes
0.3505879191	fuzzy system
0.3505367217	limitations of existing
0.3505208338	combining scheme
0.3505050058	evaluation study
0.3504611617	10 bit
0.3504397675	set semantics
0.3504204278	signal level
0.3504010771	problem areas
0.3503786943	initial boundary
0.3503462167	model describes
0.3503314679	algorithm for computing
0.3502983590	numerical study
0.3502867980	post conditions
0.3502756820	theoretical and practical
0.3502084907	p2p technology
0.3501994548	a user friendly interface
0.3501701772	design and develop
0.3501673113	l p
0.3501449203	2 dof
0.3500596405	massive amounts of
0.3500357970	assignment algorithms
0.3499026456	practical algorithms
0.3498975930	special properties
0.3498810665	start time
0.3498730439	e service
0.3498684937	social network data
0.3498530860	suspension system
0.3498458436	content information
0.3498037452	sensing information
0.3497877373	robustness and efficiency
0.3497159124	increasing numbers
0.3496826111	co exist
0.3496438649	research shows
0.3496353023	model shows
0.3495965503	conventional algorithms
0.3495545205	allocation model
0.3494967245	parts based
0.3494741455	accurate and efficient
0.3494579696	a graphical user interface
0.3494396161	readily available
0.3493385310	real and synthetic
0.3493356638	temporal analysis
0.3492423545	real situations
0.3492110763	an identity based
0.3491701772	efficient and practical
0.3491587275	triangular fuzzy
0.3491243489	analytical and experimental
0.3490308646	development and application
0.3490220221	recognition results
0.3490058075	form based
0.3489756172	model incorporates
0.3489646112	using cuda
0.3489168918	frequency rf
0.3489094137	over gf2
0.3488238242	significant factor
0.3487906899	limitations of current
0.3487902043	correction codes
0.3487753551	distributed real time
0.3487730936	moment generating
0.3487654829	oriented middleware
0.3486806352	datasets demonstrate
0.3486784773	infinitely many
0.3486726056	network programming
0.3486422812	optimization aco
0.3485548375	speed and accuracy
0.3485326756	application software
0.3485106991	section 3
0.3484283873	adaptive video
0.3483634178	implemented and tested
0.3483035908	proposed technique
0.3482812939	keeping track of
0.3482783144	automatic target
0.3482145707	linear order
0.3482058333	an important research topic
0.3481926971	fail to capture
0.3481502666	face recognition based
0.3481399374	l 2
0.3481193292	second kind
0.3481179276	logic networks
0.3480377373	evaluate and compare
0.3480375313	diagnostic information
0.3480303242	performance increase
0.3479410667	level knowledge
0.3479065544	set problem
0.3478881484	chip communication
0.3478481537	proposed model
0.3478448992	right and left
0.3478276970	high transmission
0.3478075175	propose and implement
0.3477783525	proposed method reduces
0.3477757125	set of vertices
0.3477544649	camera systems
0.3477303731	q n
0.3476425373	correction fec
0.3476122024	the roles of
0.3475745872	aware applications
0.3475745510	data sets demonstrate
0.3475039509	based heuristics
0.3474979953	repeat request
0.3474738831	self consistent
0.3474125281	transformation techniques
0.3474008342	single feature
0.3473999736	varying fading
0.3473843287	execution time
0.3473805754	difficult to detect
0.3473272002	mining results
0.3473061678	state information csi
0.3472896201	reliable and efficient
0.3471919038	users interaction
0.3471587922	c n
0.3471305431	complex and dynamic
0.3471305431	design and operation
0.3471300389	with imperfect channel
0.3470552195	complex task
0.3470448074	dynamic behaviors
0.3470432919	service applications
0.3469868077	testing algorithm
0.3469639591	neural networks anns
0.3469523962	effective in reducing
0.3469473736	a policy based
0.3469213657	using independent component analysis
0.3469061965	tool based
0.3468932509	based prediction
0.3468888234	entire network
0.3468835177	problem sizes
0.3468804975	share similar
0.3468164602	parametric approach
0.3467620616	performance criterion
0.3467182957	balancing algorithm
0.3466553613	network modeling
0.3465870735	support system
0.3465501557	plus noise ratio
0.3465413966	existing technologies
0.3464753226	implemented and evaluated
0.3464576553	two way
0.3464523185	real and simulated
0.3464346178	multiprocessor system on
0.3462424479	areas of research
0.3461690268	earlier research
0.3461498117	users context
0.3461305431	proposed and implemented
0.3460896201	efficient and reliable
0.3460010624	fire neurons
0.3459306796	evolutionary process
0.3459143728	optimal algorithm
0.3458670615	proposed methods
0.3458641979	accuracy and computational
0.3458431194	computation algorithm
0.3457651727	positive results
0.3457641670	critical software
0.3457439858	mean square error mmse
0.3456829215	features include
0.3456723376	distributed video
0.3455939518	state automata
0.3455797944	compression methods
0.3455587259	product information
0.3455183657	associations between
0.3454887161	performance test
0.3454642704	data space
0.3454560894	applications requiring
0.3453863267	voltage and frequency scaling
0.3453634838	depending upon
0.3453210394	statistical machine
0.3452809377	de facto standard
0.3452678945	dynamical system
0.3452424479	fast and effective
0.3452377109	feasibility and efficiency
0.3452299844	real and synthetic data
0.3452159263	routing approach
0.3451323323	engineering techniques
0.3450606181	number of leaves
0.3450255406	mimo techniques
0.3449517483	approach exploits
0.3449088073	new product
0.3448756768	video sensor
0.3448043314	transportation system
0.3447894895	based user interface
0.3447649832	mathematical structure
0.3447638266	coloring of g
0.3447392528	mobile wireless sensor
0.3447337485	without sacrificing
0.3447053783	scheduling methods
0.3446741343	inc j comput chem 2010
0.3446681593	filtering framework
0.3446443011	1 hop
0.3445928496	previously presented
0.3445072158	analysis based
0.3444732103	optimal channel
0.3444653346	query by example
0.3443725621	signal control
0.3443169511	interaction data
0.3443120902	robust and efficient
0.3442981167	access control system
0.3442699226	based schemes
0.3442477394	non empty
0.3442290689	warning systems
0.3442161038	v power supply
0.3442033883	practical and theoretical
0.3441607109	cost and low
0.3441558446	application environment
0.3441385824	adapt to changing
0.3440575863	users experience
0.3440434439	become increasingly important
0.3440379954	simple method
0.3440306565	propose and study
0.3439603954	simulation and experimental
0.3439268739	published online
0.3439154540	artificial and real
0.3439004151	without compromising
0.3438931622	v supply
0.3438385310	develop and evaluate
0.3438007095	protein data
0.3437631136	number of antennas
0.3436670574	simple and easy
0.3436461616	recognition based
0.3436184341	ranged from
0.3436006144	transmitting data
0.3435795141	feature extraction using
0.3435406899	effective in improving
0.3435095752	multiple models
0.3435065733	presented and discussed
0.3434938603	energy conversion
0.3434582220	system level simulations
0.3434180122	methods for solving
0.3433914641	challenges posed by
0.3433812342	existing applications
0.3433269087	project scheduling
0.3433174217	related algorithms
0.3432930364	up to date
0.3432724560	simple and efficient
0.3432660013	typical applications
0.3432052884	investigated and compared
0.3431785235	behavioral data
0.3431385930	simple and practical
0.3430903771	an open source software
0.3430439762	global structure
0.3430306565	proposed and studied
0.3429884039	management strategy
0.3429734527	first year
0.3429087040	based slam
0.3428800985	log 2
0.3428567837	real time distributed
0.3428321242	broadcast channel with
0.3428274050	related activities
0.3428267681	fairness among
0.3428085319	commonly referred
0.3427979305	k d
0.3427282813	general idea
0.3426719733	key cryptosystem
0.3425939278	similar properties
0.3425164157	algorithms for computing
0.3423878894	x 1 x
0.3423830810	stochastic nature
0.3423418563	comparable results
0.3423174624	developed and tested
0.3423065929	management bpm
0.3422765652	accuracy and speed
0.3422755495	efficient and flexible
0.3421429054	resulting algorithm
0.3421247325	x 0
0.3420327673	in wireless ad hoc networks
0.3420171322	experiments using real
0.3420105376	running applications
0.3420089513	attacks including
0.3419827453	high noise
0.3418840015	complex applications
0.3418814209	mechanism called
0.3418743559	healthcare system
0.3418558712	efficient mac
0.3418410261	research study
0.3418226731	correcting code
0.3418128789	o 1
0.3417961044	link information
0.3416944501	accurate results
0.3416469527	simulation and real
0.3415668777	problem involving
0.3415595258	efficient approximation
0.3415453377	model reconstruction
0.3415406899	robustness and accuracy
0.3415020141	transformation systems
0.3414987201	specific areas
0.3414480949	out of core
0.3414152297	software program
0.3414089412	network overhead
0.3413570717	estimator based
0.3413365127	cost control
0.3412873825	an empirical
0.3412561257	limited data
0.3412395211	propagation bp
0.3411725694	designed and developed
0.3411078194	driven service
0.3410417638	real problems
0.3410063944	observed data
0.3409574611	function network
0.3409530662	higher bandwidth
0.3409309017	management applications
0.3408976075	provide guidance
0.3408782808	allowing users
0.3408091406	trade off between
0.3407688010	brought together
0.3407572613	a constant factor approximation
0.3407437038	average error
0.3407318586	real time multi
0.3407097151	diffusion problems
0.3406989244	feature information
0.3406958372	parallel version
0.3406581155	matching technique
0.3405012861	optimization pso
0.3404922313	processing time
0.3404889076	broadcast nature
0.3404690589	time warping
0.3404121402	traditional techniques
0.3403535868	registration problem
0.3403361495	well balanced
0.3403305539	user information
0.3403269454	becoming increasingly
0.3403095259	efficient and effective
0.3402876391	a qualitative study
0.3402843372	fundamental task
0.3402724560	efficient and robust
0.3402406682	capable of producing
0.3402393277	based detection
0.3401827506	field method
0.3401724758	3d scene
0.3401608804	self interference
0.3401368299	k factor
0.3400951619	processing techniques
0.3400687957	indexing techniques
0.3400342405	collision algorithm
0.3400305344	information gathered
0.3400292149	each sensor node
0.3400027606	sugeno fuzzy
0.3399856433	traffic state
0.3399854047	simulation method
0.3399678121	accurate and robust
0.3398616469	distributed approach
0.3398420305	s s
0.3398055874	video sequences using
0.3397990207	presented showing
0.3397756009	projection onto
0.3397576812	performance related
0.3397084186	significant performance
0.3396986264	designed and evaluated
0.3396596056	two fold
0.3396523969	paper tackles
0.3396040672	per unit
0.3395867633	hard combinatorial
0.3395750800	sub tasks
0.3395214858	statistical parameters
0.3395099740	independent model
0.3394820310	presented to illustrate
0.3394735455	intensive systems
0.3394596311	extracting information
0.3394490181	a knowledge based
0.3394372036	recognition algorithms
0.3393447190	an ultra low
0.3393107518	initial data
0.3392731443	independent random
0.3392657096	initial implementation
0.3392309111	dimensional grid
0.3392111965	network information
0.3392038205	management mechanisms
0.3391984641	low accuracy
0.3391863515	single parameter
0.3391550030	logarithm problem
0.3390719643	an undirected graph
0.3390619581	slower than
0.3390593817	bringing together
0.3390385376	one round
0.3390303176	data sampling
0.3390297784	direct access
0.3390230031	mining tasks
0.3390019620	propose and analyze
0.3389725694	design and implement
0.3389176472	et al 2009
0.3388632036	designed to operate
0.3388591728	within die
0.3388544123	multiple mobile
0.3388513428	deal of attention
0.3388346247	accuracy and efficiency
0.3387824846	original query
0.3387606107	simple but effective
0.3387026954	integrated information
0.3387005706	paper adopts
0.3386925783	performance in comparison
0.3386459240	comprehensive overview
0.3385913329	features including
0.3385567722	vector routing
0.3385449490	the random oracle model
0.3385012196	level synthesis
0.3384907666	cognitive network
0.3384026072	distribution information
0.3383273253	improved scheme
0.3383172425	speed and high
0.3382998773	delay model
0.3382885017	difficult to manage
0.3382037988	language features
0.3381779008	flow simulations
0.3381744144	tolerant networks
0.3381393662	map algorithm
0.3380559831	pixel value
0.3380481040	least squares method
0.3380019620	present and evaluate
0.3379928137	on line learning
0.3379314293	aware approach
0.3379306614	additional constraint
0.3378938679	time of arrival
0.3376770681	approach yields
0.3376158740	side by side
0.3375961138	less restrictive
0.3375145098	analyzed and compared
0.3375008569	perfect knowledge
0.3374896201	simulated and real
0.3374729938	inference based
0.3374156556	past decades
0.3374138579	3 connected
0.3374032697	frames per second
0.3374026151	paper first presents
0.3373975151	external knowledge
0.3373182127	presented and compared
0.3372405706	objective of minimizing
0.3371922154	performance results
0.3371899108	model considers
0.3371800708	moderate resolution
0.3371527600	experimental approach
0.3371354405	nonlinear feedback
0.3371101281	warning system
0.3370841184	vector multiplication
0.3370705712	dominated solutions
0.3370019620	developed and evaluated
0.3369956804	control variable
0.3369909291	power spectral
0.3369726700	development cost
0.3368333936	tasks including
0.3368106151	with applications to
0.3367372658	relevant knowledge
0.3366357298	database search
0.3365703116	continuous time systems
0.3365594314	3d object
0.3365381241	representation scheme
0.3365079366	explosion problem
0.3363222883	discuss implications
0.3362302981	high rates
0.3362146811	database system
0.3361756068	fast access
0.3361686286	presented and analyzed
0.3360905368	exclusive or
0.3360801193	dynamic test
0.3359221767	faster than
0.3358148494	hybrid scheme
0.3358126502	selection problems
0.3356642567	level code
0.3356429862	data uncertainty
0.3356181593	self reported
0.3355680200	ziv video
0.3355402964	out of control
0.3355399001	reduce costs
0.3353952534	presented and evaluated
0.3353927742	integrating multiple
0.3353808553	geared towards
0.3353679581	proposed and evaluated
0.3353660227	an event based
0.3353286936	verification based
0.3353155727	based on wavelet transform
0.3352794915	approach for modeling
0.3352532655	results on real
0.3352483827	complete knowledge
0.3352399318	aware service
0.3352350127	n d
0.3351556569	number of degrees of freedom
0.3351136810	complex biological
0.3350518180	prototype tool
0.3348877179	distributed version
0.3348445356	method for detecting
0.3348318180	system dynamics
0.3348306565	developed and applied
0.3347727821	channel state information csi at
0.3347696594	adaptive genetic
0.3347653361	security critical
0.3347548689	adaptive method
0.3347049146	present and discuss
0.3347045063	adaptive output
0.3346784954	n o
0.3346592594	sub regions
0.3346579666	diagnostic system
0.3346346247	efficiency and effectiveness
0.3346179793	flexible and efficient
0.3346009111	learning capability
0.3345954539	correlation learning
0.3345863989	two point boundary
0.3345497126	experimental results obtained
0.3345346247	effective and robust
0.3345135509	functional components
0.3344998967	support provided
0.3343745881	service technology
0.3342817564	security constraints
0.3342769325	attack against
0.3342763931	related techniques
0.3342479752	easy to apply
0.3342223488	output simo
0.3342040845	b c
0.3341379301	imaging technology
0.3341281699	ad hoc networks using
0.3341230371	area of research
0.3341208190	specific problems
0.3341170448	an extensive experimental study
0.3340072507	low false
0.3339283227	analytical performance
0.3339241476	global exponential stability of
0.3339107586	topological changes
0.3339059090	study revealed
0.3338957865	description framework
0.3338567399	task of finding
0.3338264186	target application
0.3338100997	discussed and compared
0.3337735419	generation systems
0.3337291837	feedback systems
0.3336973231	efficiency and accuracy
0.3336767722	efficient optimization
0.3336463227	performance gap between
0.3336212940	large systems
0.3335769385	pay attention to
0.3335632344	inter related
0.3335570212	propose two algorithms
0.3335311730	application programs
0.3335015242	data manipulation
0.3334997262	parallel hardware
0.3334918300	in mobile ad hoc networks
0.3334758091	call blocking
0.3334673992	finite model
0.3334532481	tested and compared
0.3333049954	based semi supervised
0.3332320178	processing algorithm
0.3330700397	i i
0.3330545383	i j
0.3330335061	numerical evaluation
0.3330190543	1 d
0.3329670733	tracking results
0.3329526899	linear time complexity
0.3329488496	design techniques
0.3329079592	part i
0.3328233712	experience based
0.3328165757	mobile information
0.3328075175	simple and effective
0.3327803668	design stages
0.3326672425	efficiency and quality
0.3326573950	simple algorithms
0.3326227021	high signal to noise ratio
0.3326102079	r 2
0.3325943092	simulations and experiments
0.3325294373	an exact algorithm
0.3324998062	related applications
0.3324986340	computation model
0.3324973836	almost exclusively
0.3324484425	essential components
0.3324472122	wave solutions
0.3323964853	management crm
0.3323807754	experiments involving
0.3323576088	concept implementation
0.3323285162	topology information
0.3323095259	propose and evaluate
0.3322973771	adaptive resource
0.3322951300	distributed model
0.3322834245	improves accuracy
0.3322785938	ranking model
0.3322702010	till now
0.3322511784	path search
0.3322257419	5 ghz
0.3322247578	nodes represent
0.3321842132	abstract model
0.3321496157	synthetic and real
0.3321161848	networks manets
0.3320963509	verification systems
0.3320638709	recognition technique
0.3320065733	evaluated and compared
0.3319894094	ad hoc networks manet
0.3319846008	well separated
0.3319529145	transformation model
0.3319110170	based features
0.3318729995	out of order
0.3318707215	recently studied
0.3318285410	user based
0.3318207721	findings provide
0.3318146718	simple and robust
0.3317929839	time series models
0.3317734505	integrating data
0.3317647787	strongly influenced by
0.3316872567	model incorporating
0.3316624478	paper coding
0.3316474927	applications running
0.3315968008	science students
0.3315476771	speech recognition asr
0.3315049146	analysis and simulations
0.3314885557	time varying parameters
0.3314785709	specific characteristics
0.3314685491	vital role
0.3314325041	of service dos attacks
0.3314247117	20 db
0.3314232367	computational environment
0.3313986271	entropy method
0.3313913545	tracking process
0.3313842096	2008 wiley periodicals inc networks 2009
0.3313798899	joint probability
0.3313596607	machines svm
0.3313494687	near future
0.3312962683	integrated multi
0.3312664701	step procedure
0.3312538532	improved classification
0.3312475368	multiple reference
0.3311691517	j numer
0.3311676130	simulation and experiment
0.3311191995	easily adapted
0.3310373521	efficient scheme
0.3310288000	reference software
0.3310068590	effectively support
0.3309721605	field of research
0.3309292938	networks with time varying delays
0.3309221756	in depth interviews
0.3309085594	m m
0.3308435186	research challenge
0.3307970758	solving nonlinear
0.3307901640	server systems
0.3307629102	share data
0.3307599337	a longitudinal study
0.3307594710	multi feature
0.3307352849	services discovery
0.3307274150	there exists
0.3307083955	based fusion
0.3306369376	algorithm combines
0.3306184225	p 1
0.3305573192	traffic based
0.3305415295	systems include
0.3305049146	proposed and analyzed
0.3304752250	time frequency domain
0.3304717130	linear feedback
0.3304522332	key technology
0.3304306166	parallel data
0.3304172781	binary linear
0.3303692769	chip network
0.3303352127	programming interfaces
0.3303221483	interface based
0.3303085392	predict future
0.3303033039	physical environment
0.3302774010	important insights
0.3302749513	computing nodes
0.3302647685	additional cost
0.3302632110	a component based
0.3302063680	the proposed control scheme
0.3301781604	mesh networks wmns
0.3301676130	practical and efficient
0.3301666396	bit per
0.3301664671	time of flight
0.3301481827	an optimization framework
0.3300928103	new era
0.3300885605	host identity
0.3300739893	n body
0.3300561720	real time motion
0.3300338546	come first
0.3300178826	paper starts
0.3299546978	re engineering
0.3298983999	evolution based
0.3298932383	a computational approach
0.3298735578	time constrained
0.3298474298	no longer
0.3298156007	matching based
0.3298106876	practical solution
0.3296426951	authoring system
0.3296214097	customer needs
0.3295982861	based image
0.3295950994	decomposition emd
0.3295522105	reduction methods
0.3295475875	classification system
0.3295438064	computer vision and pattern recognition
0.3295235814	positive relationship
0.3295019620	introduce and study
0.3294580754	broadcast channels with
0.3294447419	connectivity information
0.3294159287	difficult problems
0.3294157414	architecture enables
0.3293408653	scale systems
0.3293392071	high data
0.3292998023	brings together
0.3292977631	forward relaying
0.3292625638	significant correlation
0.3291607215	efficient allocation
0.3291535153	lessons learned from
0.3291332898	simulations and real
0.3291158336	task learning
0.3290509447	non functional
0.3290341355	approach called
0.3289579643	paper also proposes
0.3289539188	very long
0.3289402933	automatic service
0.3289357924	decide whether
0.3289237988	existing code
0.3289034322	solvable in polynomial time
0.3288710487	previous method
0.3288667277	current model
0.3288220278	product data
0.3288182478	low signal to noise
0.3288165970	2009 wiley
0.3287923290	the present paper proposes
0.3287079342	paper analyses
0.3287079322	t 0
0.3286940595	initiation protocol
0.3286917530	transfer process
0.3286594507	reported in literature
0.3286472516	recent paper
0.3285961684	automated generation of
0.3285413232	web systems
0.3284462235	machine based
0.3284363255	array fpga
0.3282985173	memory devices
0.3282980629	t test
0.3282804861	number of transmissions
0.3282525648	web technology
0.3281923043	learning performance
0.3281849688	conducted to evaluate
0.3281331511	application programming
0.3280928185	practical performance
0.3280817510	viable solution
0.3280655716	theoretical analysis and experimental
0.3279715813	simple and fast
0.3279391942	wireless users
0.3278957843	short time fourier
0.3276530759	real dataset
0.3276479875	effectiveness and efficiency
0.3276085636	circuit based
0.3273906935	automatic analysis
0.3273774622	relevant data
0.3273735873	complex behavior
0.3273719729	annealing algorithm
0.3273346852	quantum key
0.3272338788	algorithm employs
0.3272168367	based text
0.3272013757	common control
0.3271304720	guidance system
0.3270359110	compares favorably with
0.3270112341	computing clusters
0.3270050639	signal based
0.3269771368	size and complexity
0.3269681869	out of plane
0.3269546462	degree of similarity
0.3268868066	c code
0.3268512734	wide application
0.3267548823	adaptive resonance
0.3267325189	agent simulation
0.3267058093	high probability
0.3266510507	technology scales
0.3266054553	excellent results
0.3266039669	three way
0.3265916878	a data mining approach
0.3265873892	previously considered
0.3265193877	recommendation based
0.3264826133	complex structure
0.3264644475	cost and power
0.3263090757	numerical algorithm
0.3262732377	np hard even
0.3261909532	non manifold
0.3261560793	encoding process
0.3261371216	discussed finally
0.3261079909	target function
0.3259715813	developed and implemented
0.3259386021	signal and image
0.3258264157	precise control
0.3258062627	level analysis
0.3256485400	specific tasks
0.3256303564	over fading channels
0.3255856758	p type
0.3255782947	identical parallel
0.3255561923	area power
0.3255476678	tracking applications
0.3254496978	existing infrastructure
0.3254349667	coding technique
0.3254156278	sensing data
0.3253345284	method based
0.3252705762	inference systems
0.3252117114	decides whether
0.3251950766	10 db
0.3251377864	resulting model
0.3251258522	case generation
0.3250802104	method exploits
0.3250160369	class of languages
0.3250043027	test application
0.3250008263	localization problem
0.3249635614	economic value
0.3249433078	promising experimental results
0.3249332898	process of developing
0.3249186066	analytic results
0.3248997743	distributed wireless
0.3248864336	average accuracy
0.3248717923	previously shown
0.3248276147	electronic medical
0.3248261202	a systematic approach
0.3248135736	ratio papr
0.3247945364	scheme improves
0.3246656364	partial channel state
0.3246496493	m k
0.3245675260	networks wsns
0.3245462025	rate analysis
0.3245461829	facto standard
0.3244558441	presented to demonstrate
0.3244041969	benefit analysis
0.3243333656	real time image
0.3241949678	mt system
0.3241709337	systematic study
0.3241292462	a privacy preserving
0.3241222551	selection techniques
0.3241149649	root cause
0.3240961336	robot system
0.3240523550	two stage approach
0.3240238062	integer k
0.3239899458	of sight los
0.3239794935	a comprehensive survey
0.3239743889	cooperation among
0.3239181915	delay performance
0.3239009883	takes advantage of
0.3238910249	accurate model
0.3238725022	space models
0.3238559058	bandwidth delay
0.3238446394	growing demand
0.3238429553	put forth
0.3236902751	current solution
0.3236881696	concept called
0.3233822434	t 1
0.3232927421	key technique
0.3232799342	order linear
0.3232650663	an experimental analysis
0.3231851761	input size
0.3231707360	based representation
0.3231700789	data communications
0.3231578368	based analysis
0.3231369426	statistical hypothesis
0.3231324218	main characteristics
0.3230683925	the time to
0.3229649366	research problems
0.3229490629	array data
0.3229254965	th order
0.3228959333	network ann
0.3227687254	tree approach
0.3227024359	enhanced distributed
0.3227015052	tree t
0.3226730151	a probabilistic framework
0.3226518680	under test
0.3226029596	network technology
0.3225910506	mining framework
0.3225238788	specific context
0.3225235274	improve communication
0.3225127814	a two stage
0.3225071960	time scales
0.3225003099	two layer
0.3224677565	time window
0.3224612805	based simulation model
0.3224492069	communication devices
0.3223567411	single model
0.3223109183	element analysis
0.3222109484	specific features
0.3221920868	network visualization
0.3221119725	solve problems
0.3220748801	model represents
0.3220556747	experiments on real world
0.3219802198	adaptive particle
0.3219721333	experiments suggest
0.3219398766	normal 0
0.3219237401	cellular neural networks with
0.3218489390	multiplexing ofdm systems
0.3218281092	approach utilizes
0.3218137134	source model
0.3218038348	an inverted pendulum
0.3217848396	underlying structure
0.3217452974	data matrix
0.3216510418	providing services
0.3216386265	approach enables
0.3216368252	empirical distribution
0.3216061767	the transmitter csit
0.3215945307	3d facial
0.3215260276	cause effect
0.3215106423	areas including
0.3214802832	grey system
0.3214756419	commonly used
0.3214524732	simulation scenarios
0.3214139713	specific applications
0.3213796798	prior knowledge about
0.3213348351	domain data
0.3213010157	network anomaly
0.3212859989	noise model
0.3211492911	fuzzy network
0.3210760672	routing performance
0.3210676247	generic algorithm
0.3210495859	a semantic approach
0.3210263608	theoretical approaches
0.3209932289	work in progress
0.3209393007	low false alarm
0.3208393620	average bit error
0.3207832258	adaptive approach
0.3207540535	differential equation pde
0.3207244231	without losing
0.3206891851	based grid
0.3206783114	experiment data
0.3206524071	no significant differences
0.3206239546	algorithm applies
0.3205902998	modern systems
0.3204839409	an entropy based
0.3204330122	authors knowledge
0.3204239701	e e
0.3203250346	large amounts of
0.3203240303	services architecture
0.3203028113	subgraph h
0.3202800154	2 hop
0.3202004024	improved efficiency
0.3201900898	main novelty
0.3201859154	key techniques
0.3201790898	vertices of g
0.3201556932	results on synthetic
0.3200909039	applications include
0.3200779292	provide insights
0.3200720279	space analysis
0.3200488183	an online algorithm
0.3200481828	from shading
0.3200177351	term prediction
0.3199904479	simplified model
0.3199488586	proposed method improves
0.3198777627	simulation result
0.3197638482	physical network
0.3197358512	sets theory
0.3197257043	domains including
0.3197022753	protocol for wireless sensor
0.3196880076	n cube
0.3196578017	design phases
0.3196191665	providing access
0.3195645679	f p
0.3195335418	analysis and experimental
0.3195304817	series based
0.3195246104	dna copy
0.3195195235	out of sample
0.3194718469	expected total
0.3194532664	strong impact
0.3194506114	target search
0.3194495122	layer model
0.3194093266	quality information
0.3193997236	both labeled and unlabeled
0.3193442777	article considers
0.3193277359	p2p system
0.3192647009	most importantly
0.3191707746	important question
0.3191670915	model developed
0.3191510266	based scheme
0.3191381901	movement data
0.3191376903	oracle model
0.3191141082	multiplexing systems
0.3190970952	large groups
0.3190370068	tree like
0.3190344814	problem remains
0.3190250829	brain stimulation
0.3189687086	based face
0.3188599877	control condition
0.3188007308	sensing based
0.3187758767	decision making model
0.3187178051	resonance theory
0.3187124748	high potential
0.3186984275	development approaches
0.3186718053	a cost effective
0.3186316606	specific application
0.3186280592	under mild conditions
0.3185150288	similar data
0.3185114437	significant factors
0.3185042970	local mean
0.3184873432	systems with state
0.3183667573	large number of
0.3183296469	problems arising
0.3183097712	solution techniques
0.3182802235	result showed
0.3182504066	time difference of arrival
0.3182499125	lower bounds on
0.3182297478	fuzzy data
0.3181522581	real time constraints
0.3181102970	evolutionary algorithm based
0.3180804180	x and y
0.3180481750	proposed algorithm achieves
0.3179569306	difficult to implement
0.3178737351	k user
0.3178666356	signal model
0.3178526239	a brief review
0.3177760200	wide applications
0.3177271526	day to day
0.3175657614	planning model
0.3175479311	input graph
0.3174992184	key ideas
0.3174287888	cycle based
0.3173939216	efficient manner
0.3172220771	particularly suited
0.3172167325	key parameter
0.3172150152	dynamic output
0.3172082534	network ensemble
0.3171230059	authors discuss
0.3171197513	state probabilities
0.3171053788	tracking multiple
0.3170637384	domain information
0.3170273583	2d 3d
0.3170240696	detection applications
0.3170203051	face recognition system
0.3169870575	of sight nlos
0.3169483211	model produces
0.3169286962	in multi hop wireless networks
0.3169186805	database query
0.3168882056	absolute value
0.3168541164	profile data
0.3167157829	studies reveal
0.3166698453	order of magnitude faster than
0.3166584754	system level performance
0.3165058312	adaptive random
0.3164892094	sub channels
0.3164009844	time discretization
0.3163729757	radius r
0.3163070507	experimental group
0.3162249229	while retaining
0.3162167455	section 2
0.3161407481	self service
0.3161325318	rewrite system
0.3161121621	detailed simulation
0.3161102981	probability of detection
0.3160508341	q function
0.3159620580	improve system performance
0.3158717551	reason about
0.3158667642	100 mhz
0.3158281998	long time
0.3158262509	proposed method works
0.3158132965	recorded data
0.3158090066	i th
0.3157967285	difficult to measure
0.3157955624	one bit
0.3157894731	frame coding
0.3157525849	bounded model
0.3157075148	this thesis
0.3156671504	emerging area
0.3156223279	g n
0.3156030246	50 years
0.3155335110	runtime system
0.3155040191	tree logic
0.3154896330	a unified framework
0.3154647987	problem of finding
0.3154098528	distributed service
0.3154029215	peer networks
0.3153563698	efficiently implemented
0.3153536978	based simulation
0.3153344046	harder than
0.3153343115	model representation
0.3152539691	n denotes
0.3152278221	e learning system
0.3152157006	taking advantage of
0.3151773662	sensitive hashing
0.3150975725	automatic code
0.3150418941	aspects of software
0.3150037217	brand new
0.3149158050	a data driven approach
0.3148789540	improved version
0.3148570024	project performance
0.3148528496	flow models
0.3148471910	qualitative data
0.3147769444	algorithms require
0.3147036994	closed form expression for
0.3146750721	dynamic virtual
0.3145842199	deterministic finite
0.3144290731	theoretical aspects
0.3143532742	order moments
0.3143327671	implementation process
0.3142787678	model including
0.3142732672	information environment
0.3141993408	standard methods
0.3141823723	local binary
0.3141353238	integrated data
0.3140406539	inventory system
0.3140231830	access systems
0.3139986764	propagation models
0.3139887682	detection system
0.3139812648	document based
0.3139177580	too expensive
0.3139084263	architecture analysis
0.3138739548	typically requires
0.3138591694	current systems
0.3137920623	experiments performed
0.3137720450	a hybrid genetic
0.3137327673	simulated and real data
0.3137229095	real time service
0.3137150087	wireless communication system
0.3137053131	intelligent data
0.3136937403	internal structure
0.3136529748	algorithm yields
0.3136325244	daily basis
0.3136120704	architecture called
0.3136078861	non photorealistic
0.3135782833	synthetic and real images
0.3135493688	method for estimating
0.3134853380	leave one out cross
0.3134735037	response data
0.3134687868	organized as follows
0.3133923929	retrieval process
0.3133804646	parameter systems
0.3133472653	capable of capturing
0.3133158266	allocation based
0.3132927788	provide insight
0.3132874192	relay system
0.3132839927	multiple independent
0.3132558832	optimal network
0.3132430170	topology based
0.3131793188	multiple nodes
0.3131442154	based test
0.3131005129	2d shape
0.3130992415	interaction method
0.3130467611	lack of understanding
0.3130070197	network cost
0.3129888271	software prototype
0.3128870889	dof parallel
0.3128758271	algorithm runs
0.3128498454	n bit
0.3127862026	algorithms for solving
0.3127364518	coupled neural
0.3127003221	perform experiments
0.3126906892	built upon
0.3126160234	technique reduces
0.3126108866	display system
0.3126060494	computational experiment
0.3125787780	symmetric positive
0.3125256288	classical algorithms
0.3125079129	mode based
0.3124146143	vary depending
0.3124121522	network scenario
0.3123380069	multiple service
0.3123337715	difficult problem
0.3123288106	scheme offers
0.3122925363	far fewer
0.3122917787	based semantics
0.3122521584	study showed
0.3122252909	channel measurements
0.3121686527	v i
0.3121138801	important tools
0.3120510637	for vehicular ad hoc networks
0.3120479971	based texture
0.3120462323	relies upon
0.3120321465	significant energy
0.3120248058	dimensional model
0.3120005184	differential equations odes
0.3119700563	interval type
0.3119592898	degree of uncertainty
0.3119389489	layer 3
0.3118889033	analysis tasks
0.3118617393	single component
0.3118103377	analysis process
0.3117893374	rich information
0.3117725333	mean and variance
0.3117197756	without degrading
0.3116871294	main problems
0.3116766089	an explorative
0.3116006217	download time
0.3115617753	ldpc codes with
0.3115530509	similar results
0.3115498623	to noise ratios
0.3115418730	fitness value
0.3115375987	commonly applied
0.3115141894	long history
0.3114527961	more importantly
0.3113854513	article investigates
0.3113542226	retrieval system
0.3113155158	model of computation
0.3113096531	information bits
0.3112863827	classification method based on
0.3112490564	positively correlated with
0.3112327673	synthetic and real data
0.3112296341	systems mems
0.3112250922	capable of performing
0.3112159862	sample mean
0.3111731721	simulation code
0.3111719090	taken into consideration
0.3111717148	distributed nature
0.3111421007	summarization system
0.3110987350	text information
0.3110980530	probabilistic neural
0.3110939928	effective solutions
0.3110729905	approach significantly outperforms
0.3110574032	2 norm
0.3110097348	network induced
0.3109082026	rely upon
0.3107940685	a comparative analysis
0.3107940383	search capability
0.3107656191	decomposition techniques
0.3107273748	analysis and extensive
0.3107250857	study compares
0.3107135874	level agreements
0.3106879293	trust value
0.3106862615	technique improves
0.3106538645	time scale
0.3106341511	high temporal
0.3105935994	worse than
0.3105668027	fundamental issue
0.3105004142	algorithm ga
0.3104474006	fuzzy multi
0.3103402849	components analysis
0.3103325499	proposed method achieves
0.3102288951	data resources
0.3101371313	aware data
0.3100019759	changing conditions
0.3098662153	localization based
0.3098582442	oriented models
0.3098525666	engineering fields
0.3097959733	algorithms including
0.3097458667	to reduce energy consumption
0.3096295587	ability to detect
0.3095996679	time critical
0.3095991138	reduction based
0.3095774556	powerful tool
0.3095670151	gaussian broadcast
0.3095591826	for mobile ad hoc networks
0.3095507241	camera mounted on
0.3095131431	depend upon
0.3094746085	all digital
0.3094702306	zero dynamics
0.3094123104	qos performance
0.3093657441	capable of achieving
0.3092653903	verification process
0.3092327326	science foundation
0.3092135312	key areas
0.3092097912	per iteration
0.3091812788	system calls
0.3090811259	partially known
0.3090303119	running time
0.3089790718	nonlinear evolution
0.3089392181	development phase
0.3089260582	application examples
0.3089187875	routing in wireless sensor
0.3088986236	model semantics
0.3088905102	statistical language
0.3088645308	widely used
0.3088631571	international journal of
0.3088497004	n 2
0.3087437137	an automated approach
0.3086608503	wimax system
0.3086298515	packet error
0.3085973707	optical character
0.3085765325	a practical approach
0.3085622407	unstructured peer to
0.3085135669	validation results
0.3084837593	major factors
0.3084352769	data stored
0.3084235652	access wimax
0.3082785769	depth first
0.3082661802	not necessarily
0.3082058081	most probable
0.3081512682	effective management
0.3081474797	e 0
0.3081233297	approach offers
0.3081025314	synthesis approach
0.3079977658	synthesis results
0.3079569291	study case
0.3079273084	an adversary
0.3078932437	environmental changes
0.3078717287	matching methods
0.3078527490	optimization tools
0.3078070429	transmission time
0.3077968691	model simulations
0.3077818292	spanned by
0.3077801728	rule based approach
0.3077191745	public information
0.3076874319	based feature extraction
0.3076815193	elapsed time
0.3076543915	an artificial neural network
0.3076497851	data distributions
0.3076402075	applied directly
0.3075936135	anytime and anywhere
0.3075759268	hundreds of millions
0.3075510729	ability to handle
0.3075359506	a quantitative evaluation
0.3074869899	original video
0.3074830057	automatic model
0.3073894926	steps towards
0.3073868916	annotation system
0.3073552504	scheduling based
0.3073286906	similar images
0.3073143546	multiple feature
0.3073077524	intention to use
0.3072965371	time derivative
0.3072737161	distributed scheme
0.3072581405	later stages
0.3072542568	adaptation methods
0.3072503187	converted into
0.3071827385	random process
0.3071664781	difficult to obtain
0.3070356189	reasoning model
0.3070346313	mobile robot using
0.3069771796	classical approaches
0.3069702589	technology ict
0.3069263269	provided to demonstrate
0.3067860885	k 2
0.3067495985	three dimensional 3 d
0.3066316072	near zero
0.3066279711	a first approach
0.3066221355	divided into
0.3066217559	strategy called
0.3066044069	this technical note
0.3065918470	co 2
0.3065587787	design evaluation
0.3065581176	research attention
0.3065054377	g v
0.3064842930	resolution images
0.3064358856	efficient mechanism
0.3063770272	hybrid automatic
0.3063208892	structures and algorithms
0.3063198140	performance simulation
0.3062325291	to gain insights
0.3061722689	multiple video
0.3061375801	current situation
0.3060848480	wireless sensor networks with
0.3060701206	automatic generation of
0.3060623733	first class
0.3060468426	work practices
0.3060259809	routing protocol for wireless sensor
0.3059350299	based registration
0.3059345194	algorithm shows
0.3059219512	point data
0.3059018602	equilibrium problem
0.3057037232	dynamics model
0.3056988608	based on fuzzy logic
0.3056960340	computing technology
0.3056683930	approach involves
0.3056360734	a unified view
0.3055758974	low signal
0.3055566240	approach to solving
0.3054793211	analysis demonstrates
0.3054407367	large volumes
0.3053952274	automated methods
0.3053747727	based navigation
0.3053708566	pay attention
0.3052630531	code level
0.3052369599	message service
0.3051330721	overall network performance
0.3051317407	a case based
0.3051289800	a research agenda
0.3051234142	area under
0.3051144584	paper concerns
0.3050731876	a computational study
0.3050574471	decision based
0.3050320601	improved method
0.3050172377	results hold
0.3049941297	architecture mda
0.3049865849	per day
0.3049495874	classification experiments
0.3049204038	secure information
0.3049110723	greater than
0.3048572376	performance evaluation results
0.3048459551	in wireless sensor networks
0.3048324247	centralized approach
0.3046585860	survey results
0.3046060594	a cross layer
0.3045566747	core platform
0.3045397631	solved in polynomial time
0.3045347122	based resource allocation
0.3045339876	a comprehensive framework
0.3045334313	perform extensive
0.3045002859	overall power consumption
0.3044904707	oriented web
0.3044884588	a literature review
0.3044802164	year period
0.3044801749	based compression
0.3044789612	back and forth
0.3044467054	diverse applications
0.3043847683	arbitrary finite
0.3043453846	comprehensive survey
0.3043247715	take place
0.3043237267	interaction systems
0.3043010477	local model
0.3042956829	035 m
0.3042439511	grouped together
0.3042142045	proposed solution
0.3041944207	feedback design
0.3041902602	u and v
0.3041518122	two player
0.3040933720	n 0
0.3040410331	algorithm for large scale
0.3039862954	detailed analysis
0.3039212391	adaptive power
0.3039167239	method generates
0.3038964617	propagation network
0.3038884953	relationships among
0.3038392560	quality function
0.3038005925	framework for evaluating
0.3037841790	o n 3
0.3037077049	computational problem
0.3036097696	hybrid electric
0.3035784024	energy required
0.3035748784	artificial potential
0.3034901719	10 6
0.3034889480	fuzzy differential
0.3034207361	m 1
0.3034099606	carried out
0.3034052202	based search
0.3033910283	recently shown
0.3033515686	one to one correspondence
0.3033470588	a hybrid model
0.3033366309	sampling process
0.3033279852	part of speech
0.3033178736	h 2
0.3032362555	013 m
0.3031899614	proposed techniques
0.3031391892	potential application
0.3031363532	advanced encryption
0.3031142771	an adaptive fuzzy
0.3030530413	best matching
0.3030202191	services provided
0.3030105407	translated into
0.3028804734	complexity issues
0.3028050768	important implications
0.3028021114	the unit circle
0.3027580677	distributed dynamic
0.3027566513	approach reduces
0.3027288106	scalability problems
0.3027192674	proposed to solve
0.3027174522	3d animation
0.3026810453	without violating
0.3026509309	access dsa
0.3026184679	algorithm works
0.3026013398	particularly well suited
0.3025878086	quantitative information
0.3025821591	technique achieves
0.3025751073	c language
0.3025628445	vision algorithms
0.3025184646	one class
0.3025159047	enhance performance
0.3024910805	linear temporal
0.3024153309	theoretical point of view
0.3023415523	popularly used
0.3023233722	algorithm for generating
0.3023151471	error dynamics
0.3022655972	problem with time windows
0.3021983479	protocol based
0.3020698174	model order
0.3020535010	linear control
0.3020202840	algorithm inspired
0.3020122920	relationships between
0.3020045974	workflow system
0.3018922966	scale data
0.3018174669	10 mm
0.3018052408	non ideal
0.3017882406	tangible user
0.3017475279	global asymptotic stability of
0.3016264645	model includes
0.3015928765	propagation algorithm
0.3015587607	commercial systems
0.3015498775	received considerable
0.3014406367	an efficient parallel
0.3014347776	processing tools
0.3013859723	empirical case
0.3013602196	representation based
0.3013514397	burn in
0.3013097843	without incurring
0.3013035576	method for improving
0.3012700601	the proposed approach
0.3011900979	common problems
0.3011898537	optimal scheme
0.3011717716	challenging tasks
0.3011504561	individual data
0.3010888334	results illustrate
0.3010529646	practical network
0.3010468590	p complete
0.3010166547	correlations between
0.3009318715	wireless cellular
0.3009259187	a mobile ad hoc network manet
0.3009112937	estimation problems
0.3008654794	conducted to validate
0.3007448128	the presented model
0.3007274376	dynamic source
0.3007161343	oriented approaches
0.3006672270	decomposed into
0.3006361269	results on benchmark
0.3006236411	objective evolutionary
0.3005868454	computation power
0.3004942765	accurate estimation of
0.3004117169	capable of generating
0.3003914487	goes beyond
0.3003577504	small number of
0.3003205681	full scale
0.3002997822	high levels of
0.3002665354	negative effect
0.3002488043	progress towards
0.3002165225	linear differential
0.3001872218	among other things
0.3001343918	statistical characteristics
0.3001305271	a distributed hash table
0.3000737939	0 0
0.3000668994	the proposed scheme
0.3000386097	control mac
0.3000079193	research issue
0.2999924085	distortion function
0.2999822746	communication schemes
0.2999644960	video coding svc
0.2998763926	scales linearly with
0.2998448809	modeling analysis
0.2998213822	duality between
0.2998118591	paper also presents
0.2998019039	3 db
0.2997611287	per frame
0.2997286186	strongly depends
0.2995795492	an ontology
0.2995772939	types of attacks
0.2995439183	abstract level
0.2995170933	robustness against
0.2995027800	depends upon
0.2994211239	fast data
0.2994070601	filter approach
0.2993879788	a mobile ad hoc
0.2993766243	published data
0.2993526868	agent approach
0.2993006148	selecting appropriate
0.2992774142	a great deal
0.2992720856	people tracking
0.2992593771	on chip network
0.2992151897	complex human
0.2992120698	case study involving
0.2991794421	based optimization
0.2991638804	model uncertainties
0.2991509534	4 bit
0.2991488721	common task
0.2991303734	require significant
0.2990266292	methods including
0.2989324453	multiprocessor systems on
0.2989195764	similarity measure between
0.2989148886	per packet
0.2988960745	parallel genetic
0.2988111435	arbitrarily close
0.2987886928	2008 wiley periodicals inc
0.2987399138	provide sufficient
0.2986657417	support learning
0.2985569167	classification using
0.2985485272	source coding with
0.2985242509	approach for automatic
0.2985240045	single network
0.2985202823	test methods
0.2984911135	statistical results
0.2984395106	expressive enough
0.2984140693	execution performance
0.2983211792	well structured
0.2983157074	special form
0.2982720932	k space
0.2982616980	computer systems
0.2982477419	distributed web
0.2982448369	method requires
0.2981978204	testing approaches
0.2981753711	non differentiable
0.2981712469	per cell
0.2981695895	integration of heterogeneous
0.2980971737	numerical and simulation
0.2980585943	d t
0.2980025557	driven data
0.2979803464	process variables
0.2979587431	traditional database
0.2979536018	day by day
0.2978510380	player characters
0.2978256542	fully support
0.2977708773	important advantages
0.2977277353	proposed firstly
0.2976096981	flight tof
0.2975745683	function mgf
0.2975510686	a three layer
0.2975504021	size increases
0.2975221538	logic controller
0.2975214344	dialogue system
0.2975142641	making processes
0.2974738754	label classification
0.2974339937	control point
0.2974252962	semantic approach
0.2974214695	desired level
0.2974120701	positively related to
0.2974012234	recognition experiments
0.2973233402	in wireless sensor networks wsns
0.2972833336	construction based
0.2972804067	large real world
0.2972710626	growing field
0.2972577924	users to share
0.2971989450	engineering processes
0.2971945576	much easier
0.2971476433	article analyzes
0.2971155857	the present method
0.2970971737	power and low
0.2970266375	2009 wiley periodicals inc
0.2969544876	time instants
0.2969275554	scale datasets
0.2968913051	wide spectrum
0.2968749405	governed by
0.2968101880	based architecture
0.2968024052	approach for designing
0.2966179513	selective channel
0.2966072363	method finds
0.2966048134	delivery performance
0.2966001254	the proposed method
0.2965549000	finding algorithm
0.2965453924	using particle swarm
0.2964727152	query model
0.2964010807	special features
0.2963996180	hybrid algorithms
0.2963723895	main difficulty
0.2963549120	based anomaly
0.2963523665	number of relays
0.2963216123	principle component
0.2963016272	channel based
0.2962853484	model dem
0.2962804880	paper examines
0.2962677220	1 bit
0.2962669998	processing resources
0.2962472746	the proposed algorithm
0.2962146271	reasoning based
0.2962059654	scoring system
0.2961948901	important research topic
0.2961902126	memory stm
0.2961828713	an optimization model
0.2961826542	similar characteristics
0.2961034613	optimal training
0.2960773500	c 0
0.2960685269	review process
0.2960414278	conducted to verify
0.2960224314	conventional techniques
0.2960133883	function f
0.2960082505	art performance
0.2958375755	the approach proposed
0.2958282723	extreme learning
0.2958151993	based recommender system
0.2958018962	domain routing
0.2957907054	research explores
0.2957361479	optimal cost
0.2957109841	service interaction
0.2957072679	neural networks with
0.2957047161	above mentioned
0.2956430528	temporal model
0.2955966765	performed experiments
0.2955051621	initial value
0.2954845084	temporal pattern
0.2954761906	takes advantage
0.2953958406	correspondences between
0.2953847953	control traffic
0.2953670621	channel attacks
0.2953360717	camera sensor
0.2953074002	functional differential
0.2952622789	network classifiers
0.2952418672	becomes increasingly important
0.2951996990	gather information
0.2951108675	the present approach
0.2951056931	integer n
0.2950859037	incorporated into
0.2950855143	based applications
0.2950470732	global performance
0.2950038416	a service oriented
0.2949875893	current technology
0.2949780160	available at bioinformatics online
0.2949620181	2d and 3d
0.2948969988	each vertex
0.2948909034	surface modeling
0.2948698101	non normal
0.2948208517	error criterion
0.2948129394	mixed finite
0.2947928832	deep understanding
0.2947832297	problem of extracting
0.2947718977	factor of 2
0.2947630769	case study shows
0.2946743905	study conducted
0.2946450331	article introduces
0.2946402884	generation wireless networks
0.2945304605	key problems
0.2945020399	detection task
0.2944857310	consists of three steps
0.2944312044	wireless fading
0.2943595544	3d visualization
0.2943341694	hardware description
0.2943282172	basis function neural network
0.2942567010	too much
0.2941686454	cbr system
0.2941526861	comparative results
0.2941368806	a constraint based
0.2940745429	re rank
0.2940579147	general multi
0.2940505583	transportation systems its
0.2940027798	constraints imposed by
0.2939574207	systems require
0.2939009907	sufficient information
0.2938889456	efficient heuristic
0.2938720351	time series model
0.2937775971	without requiring
0.2937557261	correlation information
0.2937488932	regression approach
0.2937073927	acoustic sensor networks
0.2936901064	number of processors
0.2936606405	preserving data
0.2936483989	fast mode
0.2936254341	techniques including
0.2935076314	a region based
0.2934109783	core idea
0.2933776273	state routing
0.2933491503	crucial problem
0.2932947347	assessment methods
0.2932682939	testing based
0.2932091933	parallel performance
0.2932062023	algorithm exploits
0.2931665193	the proposed methodology
0.2931455941	geometric models
0.2931372299	complex models
0.2931345267	capacitated vehicle
0.2930281619	cycle model
0.2930277601	without needing
0.2929479262	automata model
0.2929338911	a real case study
0.2929269630	k dimensional
0.2929135273	basic structure
0.2928584355	domain approach
0.2927894635	method reduces
0.2927522027	method for extracting
0.2926162999	theoretical analysis and simulation
0.2924563742	method extends
0.2924556099	students to learn
0.2924533565	programming algorithms
0.2924434220	detailed model
0.2924041012	polynomial fuzzy
0.2923751900	problem involves
0.2923619009	related data
0.2922563699	compared to conventional
0.2921921300	numerical solution of
0.2921615382	approach named
0.2921379728	problem of predicting
0.2920930973	collected information
0.2920854151	accurate simulation
0.2919758146	order methods
0.2919414807	in service oriented computing
0.2918677423	energy per
0.2918513976	controller based
0.2918241158	an extended kalman filter
0.2917783327	aims to address
0.2917717480	in banach spaces
0.2917183073	logic systems
0.2916918772	information needs
0.2916876342	experiments on synthetic and real
0.2916350115	great interest
0.2916310744	loss of accuracy
0.2916269144	extensive empirical
0.2915678476	relationship between
0.2915474474	symmetric channel
0.2914742117	networks wsn
0.2914215370	sub channel
0.2913950603	efficient framework
0.2913631669	n point
0.2913375692	an xml document
0.2913028101	tight upper
0.2912893738	abstract representation
0.2912192809	require special
0.2911985085	proposed algorithm outperforms
0.2911513828	recent development
0.2911336516	easy to compute
0.2911128503	algorithm for constructing
0.2911089645	nonlinear problems
0.2909562776	proof of concept implementation
0.2909410467	a web based application
0.2909404724	a generic approach
0.2909392855	while keeping
0.2909358372	a large margin
0.2909336961	amounts of data
0.2908414917	distributed random
0.2908320074	methods rely
0.2907481399	level of security
0.2907362555	018 m
0.2907199680	proposed architecture
0.2906864821	contrary to
0.2905742397	10 5
0.2905584478	outperform existing
0.2905215801	did not differ
0.2904490239	relatedness between
0.2904111616	application area
0.2903929702	transformed into
0.2902983687	programming technique
0.2902900367	based mechanism
0.2902732476	the proposed technique
0.2902604041	stage approach
0.2902577837	access control mac
0.2902442506	specific user
0.2901554885	one and two dimensional
0.2901359383	c k
0.2901324352	current implementations
0.2900636330	search heuristic
0.2900516532	function deployment
0.2900183358	linear system of equations
0.2898921993	p i
0.2898367184	mining approaches
0.2898141524	existing security
0.2897313485	to digital converter adc
0.2897019756	highly significant
0.2896873009	features extracted from
0.2896842173	higher throughput than
0.2896706577	simple network
0.2896490944	experimental results indicate
0.2896230864	signal space
0.2896064699	data generation
0.2895868813	the parameterized complexity
0.2895783698	coding based
0.2895545413	a long standing open
0.2895203495	efficient feature
0.2894748248	transition system
0.2894133905	the present study
0.2894133905	the present paper
0.2893822288	retrieval method
0.2893623396	common features
0.2893280812	time invariant
0.2893124553	svm models
0.2893070441	research focuses
0.2892735517	classical methods
0.2891632918	stochastic systems with
0.2891294640	computer simulations
0.2891191377	performance parameters
0.2890603498	g if
0.2890583161	complex dynamic
0.2889990269	point of interest
0.2889745830	qualitative study
0.2889661859	path algorithm
0.2889411988	aims to improve
0.2889258638	essential features
0.2888789911	scale network
0.2888544129	fully developed
0.2888058211	current context
0.2886553560	system of systems
0.2885982320	training system
0.2885978400	cost effectively
0.2885945509	model combining
0.2885593747	ip over
0.2885161807	negligible performance
0.2884941082	major source of
0.2884628145	wide range of applications
0.2884177817	co operation
0.2883250366	on orbit
0.2882139023	scheme performs
0.2881723331	verification methods
0.2881496946	mapping based
0.2880502974	n k
0.2879796271	sub problems
0.2879766267	an automated
0.2879657924	game like
0.2879461107	energy requirements
0.2879255024	semantic gap between
0.2879123247	segmentation using
0.2878942246	special focus
0.2878734917	two and three dimensional
0.2878603480	control method based on
0.2878599449	music information
0.2878127626	improve reliability
0.2877939257	gather data
0.2877762413	illustrated with examples
0.2877740241	p and q
0.2877625270	no matter
0.2877559301	problem size
0.2877413829	users search
0.2876884418	to save energy
0.2876772090	a language independent
0.2876729266	millions of users
0.2876402793	practical case
0.2876277163	report experimental results
0.2875724867	based application
0.2875658368	partitioned into
0.2874805982	a priori information
0.2874205662	segmentation performance
0.2874145172	steps required
0.2873651081	based trust
0.2873604331	space approach
0.2873119942	complex nonlinear
0.2872857006	existence of solutions
0.2872729489	taken into account
0.2872698429	an n dimensional
0.2872543909	turnaround time
0.2872528364	for microwave access
0.2872387564	intelligence systems
0.2871958530	very fast
0.2871828263	an operational semantics
0.2871228017	study area
0.2870955577	major advantage
0.2870651202	memory system
0.2870209174	ease of use
0.2869987265	comparison results
0.2869876234	opinion score
0.2869421501	paths based
0.2869262230	information present in
0.2868907724	queueing system
0.2868889423	non negligible
0.2867887142	high levels
0.2867551259	mechanical system
0.2867298244	an integer linear program
0.2867208009	called hybrid
0.2866970935	level information
0.2866931044	images demonstrate
0.2866605161	current literature
0.2866583215	processing capability
0.2866057273	18 v
0.2866047370	wider class of
0.2866025101	consists of two steps
0.2865899869	standard techniques
0.2865893267	one pass
0.2865737848	probability of false
0.2865663211	designed to support
0.2865634182	secure e
0.2865542857	wireless body
0.2865444004	data mapping
0.2863108103	concerns about
0.2862986777	systems including
0.2862705036	a unified approach
0.2862386928	a decision support tool
0.2862097360	complete problems
0.2862050314	problem solution
0.2862032772	modeling based
0.2861671014	a trivial task
0.2861374864	2 n 2
0.2861114772	ary n
0.2860929242	decision making under
0.2860854247	fair resource
0.2860598810	data selection
0.2860493711	an expectation maximization
0.2860151527	per se
0.2860150983	system design
0.2859865488	a general framework
0.2859376237	factor approximation
0.2858953342	prediction results
0.2857858187	detector based
0.2857773225	plan based
0.2857315241	huge amount of data
0.2856755877	while maintaining
0.2856469319	order cone
0.2856171294	the presented results
0.2855863979	under certain assumptions
0.2855754622	two case studies
0.2855736014	routing based
0.2854107258	internet application
0.2854097977	more energy efficient
0.2853978179	unified modeling
0.2853880007	major role
0.2853819740	hash value
0.2853218136	a class of nonlinear systems
0.2851908609	model output
0.2851800729	a brief survey
0.2851718044	total transmit
0.2850410706	composition based
0.2850382718	assessment method
0.2850368993	collaboration among
0.2849884576	consists of two stages
0.2849521432	retrieval experiments
0.2849494669	methods for estimating
0.2849095743	destination pair
0.2848632299	aimed at improving
0.2848464913	at home
0.2848247715	little attention
0.2848136012	a case based reasoning
0.2847792374	interesting results
0.2847347860	the proposed framework
0.2846690054	individual sensor
0.2846527346	k n
0.2846101940	recent approaches
0.2845802596	the decision maker
0.2845599910	generation approach
0.2845270345	large dynamic
0.2844904768	paper covers
0.2844760691	network simulations
0.2844581329	np hardness of
0.2844523183	orientation information
0.2843971544	key role
0.2843590881	problem called
0.2843528832	mining data
0.2843025326	total harmonic
0.2842690636	showed significant
0.2842545404	a socio technical
0.2842470374	implemented efficiently
0.2842388873	minimum mean square
0.2842261005	transmission over
0.2842035902	3 axis
0.2841516579	until now
0.2841213924	non local
0.2840508068	control models
0.2840290451	analysis and simulation results
0.2839940997	access channels
0.2839501517	n player
0.2839469317	set up
0.2838929843	a priori
0.2838295615	techniques include
0.2838166804	sharing applications
0.2838078696	effective information
0.2837963565	based verification
0.2837941580	scale analysis
0.2837399974	programs written in
0.2837347764	general conditions
0.2836726094	10 fold
0.2836511219	length n
0.2836119602	multiple autonomous
0.2836095549	n r
0.2836090486	crucial step
0.2835731611	an extended
0.2835676175	larger than
0.2835058569	in optical burst
0.2835014396	v e
0.2834860724	gain access
0.2834858872	sensitive to noise
0.2834374437	successful implementation
0.2834352860	network components
0.2833841089	special issue on
0.2833717604	online role
0.2833510017	general class
0.2832576836	for mimo ofdm systems
0.2832567283	equation model
0.2831066700	translation rotation and
0.2831042935	localization system
0.2830755050	significant power
0.2829535202	consists of two parts
0.2829429342	fuzzy systems with
0.2828201509	hard combinatorial optimization
0.2828033153	multiple sequence
0.2827746898	a computational framework
0.2827671638	n th
0.2827307463	full color
0.2827218710	limited channel
0.2827055890	in north america
0.2826816219	well established
0.2826349643	highly dependent on
0.2825917781	modeling simulation
0.2825699628	positively related
0.2825414229	numerical results obtained
0.2825015418	simple structure
0.2824847576	extra information
0.2824826495	systems ids
0.2824646798	significantly faster than
0.2824454004	robust approach
0.2823678899	important contribution
0.2823438316	oscillator vco
0.2823312311	t cells
0.2823002549	growing number of
0.2821942508	power applications
0.2821837469	non expert
0.2821801392	non speech
0.2821486517	real network
0.2821330942	limited support
0.2820892168	rate of change
0.2820061797	build upon
0.2819491166	watermarking scheme based on
0.2819335287	achieve significant
0.2818935047	significant potential
0.2818046915	accurate estimation
0.2817987863	smaller than
0.2816943650	each node
0.2816684846	upper bound on
0.2815936248	included to illustrate
0.2815896155	comparison between
0.2815796910	detection using
0.2815063172	based negotiation
0.2814919839	central control
0.2814886266	advantages over traditional
0.2814475968	design errors
0.2814150843	aimed at
0.2814128722	aims to explore
0.2814111550	realistic conditions
0.2813537160	users access
0.2813263351	satisfaction problems
0.2812000498	compares favorably to
0.2811963813	most informative
0.2811681838	method enables
0.2811466765	access to information
0.2811303925	world model
0.2810991629	design cad
0.2810990405	highly mobile
0.2810226724	management functions
0.2810212734	root causes
0.2810177631	in cognitive radio networks
0.2809290473	first and second order
0.2809083166	diagnosis system
0.2808992723	a research model
0.2808914952	original version
0.2808254228	2 3 4
0.2808252753	set model
0.2807453280	rapid increase
0.2807165781	number of neurons
0.2806604653	paper takes
0.2806583482	a finite element
0.2806102692	important properties
0.2805440158	added value
0.2805346270	challenges posed
0.2804527620	much faster
0.2804270133	resource constrained project
0.2804050155	three level
0.2803654003	relational analysis
0.2803303201	results of numerical
0.2803224863	scheme for wireless sensor
0.2803127329	communication tools
0.2802947052	based detector
0.2802912136	software solution
0.2802457480	insight into
0.2802436185	real video
0.2802308186	non autonomous
0.2802113784	t n
0.2802031172	based information retrieval
0.2802001843	wireless local
0.2801571099	experimental results on benchmark
0.2801258776	recovery time
0.2800193504	previous models
0.2800112436	enabling efficient
0.2799616698	optimal control problems with
0.2799601823	output mimo channels
0.2799547628	call by value
0.2798851499	schemes achieve
0.2798422516	without knowing
0.2798052095	contour model
0.2797932426	efficient design
0.2797591250	a web based
0.2797350678	area index
0.2796605571	phone based
0.2796475117	online data
0.2796456549	retrieve information
0.2796424931	generation based
0.2794653593	range of values
0.2794650024	generic architecture
0.2794641710	inferences about
0.2794052851	an exact solution
0.2793744268	the proposed scheme achieves
0.2793260298	time bounded
0.2793230868	time varying systems
0.2793051285	approximation problem
0.2792578341	recent advances in
0.2791915934	effective ways
0.2791101108	every node
0.2790700172	a preliminary analysis
0.2790570427	two step approach
0.2790468220	automatic method
0.2790391179	underlying data
0.2789975942	data generated
0.2789754350	network platform
0.2789543242	based measures
0.2789046795	measure based
0.2789024402	3 and 4
0.2788797193	an automatic approach
0.2788453417	published results
0.2788235361	main properties
0.2787788647	mean squared error mmse
0.2787735030	approximation algorithm for
0.2787647332	computer network
0.2786896517	structure called
0.2786869697	classical problem
0.2786455283	estimation schemes
0.2785832138	thorough understanding
0.2785695676	an np complete problem
0.2785471997	3d integration
0.2785469339	to minimize energy consumption
0.2785402214	an innovative
0.2785266503	small mobile
0.2784729453	experimental results on real
0.2784718124	on chip mpsoc
0.2784540081	systems with unknown
0.2784334363	model achieves
0.2784314891	parameters obtained
0.2784129866	identification system
0.2784022600	related areas
0.2783709746	experience shows
0.2783481789	second language
0.2783478694	an rfid
0.2783296761	issues relating to
0.2783046075	access control protocol
0.2782855080	an attacker
0.2782627150	end latency
0.2782331287	identification technique
0.2782268690	network manet
0.2782029743	radar system
0.2781995263	an ant
0.2781536040	model outperforms
0.2781433338	compared to traditional
0.2781301631	a simulation study
0.2780998195	the proposed method outperforms
0.2780626081	evaluation showed
0.2780569770	enabling users
0.2779918547	service saas
0.2779762619	30 years
0.2779448293	gap between
0.2778449279	genetic based
0.2778232091	mimo orthogonal frequency division multiplexing
0.2777945147	recent theoretical
0.2776860962	well defined
0.2776772621	a genetic algorithm ga
0.2776461523	p 2
0.2775999250	existing web
0.2775990452	2d image
0.2775869956	network behavior
0.2775826999	relevant properties
0.2775671577	broadband engine
0.2774838695	easy access
0.2774262542	applied to solve
0.2774188371	in vehicular ad hoc networks
0.2774006028	theory ser
0.2773846908	techniques require
0.2773663620	b n
0.2773549891	an n vertex
0.2773366529	degree d
0.2773237416	power of two
0.2772615393	achieves better performance
0.2772055501	model yields
0.2771842517	many to one
0.2771600200	original signal
0.2771413869	distortion caused by
0.2771110808	computer architectures
0.2769939876	level representation
0.2769839095	distributed program
0.2769711981	call admission
0.2769308643	programming relaxation
0.2769242889	active research
0.2769215316	volume of data
0.2769042263	an early stage
0.2768783888	an unsupervised manner
0.2768648956	symposium on
0.2768522561	p value
0.2768182039	based tracking
0.2768039228	5 6
0.2767846139	d 1
0.2767774066	based on ant colony
0.2767735995	achieve better performance
0.2767519970	based controller
0.2767247416	an extended kalman
0.2767228463	findings indicate
0.2766473424	infinite time
0.2766443887	space reduction
0.2766065708	significant research
0.2765877710	design cycle
0.2765088428	too slow
0.2764936931	if not impossible
0.2764921346	realistic models
0.2764265922	core design
0.2764238736	using genetic algorithm
0.2763705039	agent system
0.2763399495	refers to
0.2763225822	dense wireless
0.2763220660	algorithms for finding
0.2762796909	aims to identify
0.2762450232	consists of two phases
0.2761862526	traditional models
0.2760820865	fpga implementation of
0.2760798383	a step forward
0.2760552603	designed specifically
0.2760490106	less conservative
0.2760198600	re use
0.2760169224	automatic detection of
0.2760085455	arbitrarily close to
0.2758708151	fully polynomial
0.2758426381	previous approach
0.2758405812	difficult to apply
0.2758143265	web based system
0.2758089398	wide array of
0.2757923592	identify key
0.2757277948	a unified
0.2757144307	value based
0.2756898900	multi protocol
0.2756725012	systems with multiple
0.2756286447	an iterative
0.2755297630	broader class of
0.2755281685	many cores
0.2755023827	collect data
0.2754556387	pertaining to
0.2754409170	real experiments
0.2754055004	over ip voip
0.2753544580	rate increases
0.2753496424	vast number of
0.2753134351	verification problem
0.2753094834	vertex graph
0.2752731919	end to end quality
0.2752667608	existing data
0.2752617920	obtained by applying
0.2752380974	oriented software engineering
0.2752302475	every day
0.2752195910	interaction based
0.2751842517	one to many
0.2751785737	computational method
0.2751310173	high signal to noise
0.2750789309	interesting features
0.2749452333	control based
0.2749380308	effective methods
0.2749367185	evaluation problem
0.2748872159	petri nets with
0.2748540781	output siso
0.2748388528	programming algorithm
0.2748046603	source data
0.2747438125	the proposed model
0.2747429510	a cross layer design
0.2746251495	a priori knowledge
0.2745856852	scheme utilizes
0.2745662736	take into consideration
0.2745001701	the finite element method fem
0.2744451368	based interfaces
0.2744372853	network code
0.2744288780	time wcet
0.2744252754	does not necessarily
0.2744157482	non zero
0.2743909690	optimization tool
0.2743665173	inspection system
0.2743583522	major problem
0.2743475430	two person
0.2742882058	value functions
0.2742692670	images using
0.2742501235	model for predicting
0.2742405761	strong support
0.2742253371	too costly
0.2742229047	findings support
0.2742111323	total number
0.2741169328	network training
0.2741087150	n vertices
0.2740836518	a real data set
0.2740295629	dynamics based
0.2739828447	quantization index
0.2739811246	this letter proposes
0.2739229140	o k
0.2739187173	a fine grained
0.2739137965	time periods
0.2738503055	an fpga implementation
0.2738089245	fail to provide
0.2737858129	accompanied by
0.2737625570	approach produces
0.2737174576	model describing
0.2737110234	sets of features
0.2737016468	maximum transmission
0.2736980700	event systems
0.2736960739	based view
0.2736076276	great impact
0.2735918267	scheme enables
0.2735635866	algorithm to solve
0.2734892496	at high snr
0.2734585925	technical problems
0.2734550612	provide high quality
0.2734294552	easily obtained
0.2734118378	take into account
0.2733634093	based multi
0.2733559519	extensive experimental study
0.2732848799	low cost low
0.2732521487	analysis result
0.2730731580	maximum achievable
0.2730502799	capable of providing
0.2730497872	method for generating
0.2729939352	extraction algorithms
0.2729827858	with time delays
0.2729175661	software system
0.2728939640	n t
0.2728502180	comprehensive model
0.2728463808	high quality results
0.2727690585	camera system
0.2727476489	assumptions made
0.2727085695	general form
0.2726966711	measured results
0.2726205723	varying channel
0.2725904465	idle time
0.2725813878	a primal dual
0.2725712689	cellular system
0.2724802418	centered around
0.2724777054	detection mechanisms
0.2724503489	r 1
0.2724501477	the future internet
0.2724391589	brief paper
0.2723978099	more precisely
0.2723510275	dynamic energy
0.2723197979	accurate estimates
0.2723166032	differences between
0.2722979007	a distributed manner
0.2722175329	g and h
0.2722148648	multiple input multiple
0.2721496376	conventional single
0.2721310025	a convex optimization problem
0.2721150144	heavily depends on
0.2721093220	processing problems
0.2720912369	g 1
0.2720560434	number of nodes
0.2720548523	the base station
0.2720427507	diverse set
0.2719827171	set method
0.2719597166	dimensional systems
0.2719387484	a directed acyclic graph
0.2719386600	an open question
0.2718871626	world data
0.2718706758	special structure
0.2718625654	reality based
0.2718359161	sub graphs
0.2718153655	real time process
0.2717934843	sequence information
0.2717541447	fuzzy information
0.2717417224	improvement in performance
0.2716823011	protocol model
0.2716771177	regions of interest
0.2716572509	important to understand
0.2715445104	localization using
0.2715299103	impaired people
0.2715265381	sensing method
0.2714491679	2 or 3
0.2713844366	neighborhood information
0.2713624643	equation models
0.2713060222	design issue
0.2713002067	programming method
0.2712959796	practical systems
0.2712925048	control rules
0.2712849371	communication resources
0.2712620694	conducted to investigate
0.2712584061	intelligent information
0.2711762395	non equilibrium
0.2711736370	scalable solution
0.2711610175	model enables
0.2711108498	grows linearly with
0.2710989896	traditional algorithms
0.2710857767	experiment based
0.2710479821	based retrieval
0.2710143446	an adaptive approach
0.2709824035	regarded as
0.2709787098	near optimal solution
0.2709545827	distinct features
0.2709495672	an analytical framework
0.2709407772	world systems
0.2709406337	proposed algorithm performs
0.2709212563	an ad hoc
0.2709156849	translation system
0.2709125453	environment based
0.2709044101	real application
0.2708721382	aims to reduce
0.2708518126	approximation algorithms for
0.2708505675	layer architecture
0.2708243664	driven method
0.2707941923	time to market
0.2707843901	techniques exist
0.2707725253	unclear whether
0.2706786399	the proposed algorithm outperforms
0.2706723872	twofold first
0.2706470920	complete data
0.2706452264	similar users
0.2706004112	six degrees of freedom
0.2705899070	a unifying
0.2704985665	very large datasets
0.2704653145	out cross validation
0.2704648469	copyright 2009
0.2704256378	a user centric
0.2704238343	with time varying delays
0.2703809300	degree 3
0.2703613694	users ability
0.2703580398	dimensional feature
0.2703433870	detection method based on
0.2702969120	metrics based
0.2702818157	a humanoid robot
0.2702672122	significantly more accurate
0.2702542465	framework for developing
0.2701214658	inside and outside
0.2700708277	based ad
0.2700574130	the extended kalman filter ekf
0.2700519918	strong correlation between
0.2700490441	much simpler
0.2700030731	there exist
0.2699897990	effective learning
0.2698788754	reasons behind
0.2698474887	estimation results
0.2697683582	experimental results show
0.2697604433	life time
0.2697187202	engineering course
0.2696233103	high spatial
0.2695985150	an inductive
0.2695564868	this article examines
0.2695490295	function prediction
0.2695105738	essential component of
0.2694808724	even though
0.2694589881	issues related to
0.2694004316	easily integrated
0.2693420275	moving towards
0.2693052650	desktop computer
0.2693012844	does not exceed
0.2692943821	time period
0.2692614423	drive system
0.2692476194	a logic based
0.2691753099	many real world problems
0.2691638758	assistance system
0.2691433656	field of study
0.2690540383	assessment system
0.2690427755	results highlight
0.2690325304	a computational method
0.2690174769	more pronounced
0.2689770842	hybrid data
0.2689711056	algorithms perform
0.2688914048	schemes provide
0.2688628381	under consideration
0.2688510851	core technology
0.2688285445	optimal values
0.2688189565	k best
0.2687315151	sub blocks
0.2687216313	compared with conventional
0.2687176492	the proposed architecture
0.2687015232	two dimension
0.2686885777	perceived value
0.2686844680	literature based
0.2686319294	the moment generating function mgf
0.2686293961	combined method
0.2686187071	challenges faced by
0.2685875097	each peer
0.2685644990	coincides with
0.2685236738	number generator
0.2685118577	provide experimental results
0.2685117767	level models
0.2685050649	performance differences
0.2684789581	oriented model
0.2684761720	basic features
0.2684506434	standard approach
0.2684219552	the present research
0.2684131846	based query
0.2683803188	fast method
0.2682347703	2 connected
0.2682071246	classification technique
0.2681933863	science applications
0.2681458850	critical analysis
0.2681078718	simulation results show
0.2680633309	almost always
0.2680217982	tracking technique
0.2680154181	three layer
0.2679921423	while preserving
0.2679473234	an analytical solution
0.2679272695	user needs
0.2679132277	distinction between
0.2678601080	a closed form solution
0.2678512382	a viable alternative
0.2677170525	a fully distributed
0.2677005903	tool for analyzing
0.2676533921	traditional software
0.2676245954	approach employs
0.2675518851	while incurring
0.2675196766	average channel
0.2675157933	communication energy
0.2675088858	basis function network
0.2674644797	induction algorithms
0.2674201427	many to many
0.2674064265	important source of
0.2674019924	a survey
0.2673405414	important parameters
0.2673209933	a by product
0.2673158127	unique features
0.2672938113	scheme based
0.2672773911	a software product line
0.2672385088	intelligent system
0.2671807768	alternative to traditional
0.2671639076	enhanced learning
0.2671542189	large numbers of
0.2671391616	paper formulates
0.2671029737	future network
0.2670413974	sharing networks
0.2670047506	design level
0.2669876174	3d objects
0.2669837106	go beyond
0.2669820991	insights into
0.2669718552	simulation results prove
0.2669641094	identify potential
0.2669502302	popular tool
0.2669403275	simulated results
0.2669383323	the binary erasure channel
0.2669219917	aiming at
0.2669132433	a non intrusive
0.2669094276	proposed to improve
0.2668999112	trace data
0.2668989721	rao lower bound
0.2668499827	accurate information
0.2668489319	development organizations
0.2668386961	models built
0.2668227560	vector machine based
0.2667767846	an improved method
0.2667595533	an important issue
0.2667335569	strongly depends on
0.2667304451	extended to include
0.2667227618	solution consists
0.2667094378	level 2
0.2667002302	evaluation demonstrates
0.2666830085	dynamic partial
0.2665759246	in turn leads
0.2665650612	based software development
0.2664652526	m 2
0.2664579808	quantitative results
0.2664539176	subsequent analysis
0.2664080066	space and time
0.2663982762	sub image
0.2663861986	specific conditions
0.2663817605	power requirements
0.2663035845	the combined effect
0.2662976798	process technology
0.2662788649	large sets of
0.2662572705	subset s
0.2662030752	communication standards
0.2661954891	25 years
0.2661943803	3d geometry
0.2661886825	mean and standard deviation
0.2661333953	most notably
0.2661226643	this article presents
0.2660679546	architectural approach
0.2660515327	a real world scenario
0.2660077170	time markov chain
0.2659910522	d 1 d
0.2659785653	rate based
0.2659672785	while guaranteeing
0.2658716588	simulations illustrate
0.2658560950	algorithm for estimating
0.2658368870	a systematic study
0.2658220716	critical importance
0.2657504106	developed recently
0.2656630016	generated instances
0.2656622223	preliminary experimental
0.2656470866	fastest known
0.2655600665	support multi
0.2654596922	actual data
0.2654156375	per user
0.2654056946	stability of periodic
0.2653796018	strongly influenced
0.2653233464	previous work
0.2652400287	rate requirements
0.2652082764	tools provide
0.2651953888	pairwise error
0.2651571213	approach combines
0.2651535959	findings demonstrate
0.2651309644	based designs
0.2651231366	datasets including
0.2650137242	sharing schemes
0.2650068291	deployment of wireless
0.2649864040	users personal
0.2649299672	the last decade
0.2649263886	great deal of
0.2648858422	the past two decades
0.2648797490	get rid of
0.2648293589	an embedded
0.2648289315	prototype called
0.2648247307	speed wireless
0.2648222623	frequently used
0.2647360146	this article describes
0.2647309566	service information
0.2647260607	related approaches
0.2647051967	compared with traditional
0.2647037338	length l
0.2647002447	nearest neighbor knn
0.2646749431	users current
0.2646545763	advanced data
0.2646533253	considered simultaneously
0.2646338225	owing to
0.2645690526	a comprehensive overview
0.2645657953	parameters including
0.2645563294	evaluation experiments
0.2645252675	a process oriented
0.2644886652	k out of
0.2644847569	latest version of
0.2644320859	the shelf
0.2644179343	current image
0.2643990424	method estimates
0.2643985218	best performing
0.2643767321	applications involving
0.2643575304	application specific instruction
0.2643506321	subjected to
0.2643163712	method extracts
0.2643100254	varying levels of
0.2642933139	suffers from
0.2642010606	belong to
0.2641175822	uci machine
0.2640996678	bottom up approach
0.2640714666	attempt to address
0.2640698253	very wide
0.2640595891	the european union
0.2640571105	very helpful
0.2639834622	management solutions
0.2639791171	enormous amount of
0.2639743451	method for identifying
0.2639555106	two user
0.2639446313	a fast method
0.2639043437	multiprocessor system
0.2638854510	unified manner
0.2638798729	higher compression
0.2637703405	traditional clustering
0.2636935746	article reports
0.2636819190	interference isi
0.2636675747	three dimensional space
0.2636644805	functional information
0.2636125652	key component
0.2634593663	last few years
0.2634527979	network characteristics
0.2634450823	each player
0.2633991200	of paramount importance
0.2633541566	class problems
0.2633289016	trading system
0.2632556282	h of g
0.2632301366	space explosion
0.2631949672	users to access
0.2631749421	with high probability
0.2630924250	solutions obtained
0.2630890161	problems faced
0.2630706740	existing scheme
0.2630681024	shown to yield
0.2630677901	without affecting
0.2630517996	modern applications
0.2630464717	a new perspective
0.2630128666	control layer
0.2629830076	role in determining
0.2629440820	discrete time systems with
0.2629422604	approach to modeling
0.2628985036	based sampling
0.2628930771	this dissertation
0.2628803513	algorithms performance
0.2627673152	comparison with conventional
0.2627561466	the presented method
0.2627329551	mean squares
0.2627042596	traditional routing
0.2626867279	scheduling technique
0.2626610782	linear dynamic
0.2625477289	a trusted third party
0.2625200076	finitely many
0.2624883400	successful applications
0.2623893703	autonomous system
0.2623727194	output systems
0.2622994069	fault diagnosis in
0.2622629335	et de
0.2622522439	easy to use
0.2622461350	shorter than
0.2622270691	proposed scheme improves
0.2622246845	execution time wcet
0.2621987598	two sides
0.2621931356	over time varying
0.2621600884	detection approaches
0.2621458259	validation method
0.2621376493	verification approach
0.2621359971	to digital conversion
0.2620661625	mining technology
0.2620006986	regulation problem
0.2619620216	80211 networks
0.2619241512	tradeoff between
0.2618463479	grained access control
0.2617940404	method for computing
0.2617896602	ongoing work
0.2617822819	ability to provide
0.2617184774	dynamic properties
0.2616987603	an important research area
0.2616901191	read only
0.2616777621	proposed solutions
0.2615845087	paper makes
0.2615828172	corresponds to
0.2615670836	proposed mechanism
0.2615410204	a service oriented architecture
0.2615268748	rate function
0.2615183227	complying with
0.2614938147	independent test
0.2614662055	radial basis function neural
0.2614549592	1 and 2
0.2614381539	active area
0.2614124011	k tree
0.2614076283	similar problems
0.2613770183	tradeoffs between
0.2613617737	often overlooked
0.2613314715	an adaptable
0.2613151597	based approach to
0.2613118174	based on rough set
0.2612996699	method for finding
0.2612639976	four point
0.2612547642	derive analytical
0.2612505593	scalable data
0.2612433164	neural p systems
0.2612324161	educational system
0.2612285852	experiments validate
0.2612084405	n log n
0.2611811454	a meta heuristic
0.2611594276	proposed to reduce
0.2611593077	comparative analysis of
0.2611422162	important research area
0.2611302825	neural correlates of
0.2610531622	method for constructing
0.2610091276	problem of minimizing
0.2609279745	communications technology
0.2608769271	response fir
0.2608305853	performance analysis of
0.2608297251	frequency division multiplexing ofdm system
0.2607706564	segmentation algorithm based on
0.2607580887	so called
0.2607038801	vision techniques
0.2606624022	method shows
0.2606005587	the minimal number
0.2605956600	zero mean
0.2605523444	results demonstrated
0.2605232528	grouped into
0.2605080135	performs better than
0.2604686690	an interactive
0.2604609116	time and frequency
0.2604608615	based diagnosis
0.2604524657	fields including
0.2603947196	error rate ber performance
0.2603762256	an extensive experimental evaluation
0.2603734647	set of features
0.2603696232	evolve over time
0.2603663410	current frame
0.2603628215	system development
0.2603076247	previous state
0.2602824476	approach requires
0.2602510915	this paper proposes
0.2602185522	important challenges
0.2601376487	expression analysis
0.2600962322	retrieval techniques
0.2600421918	detection process
0.2600140022	the ant colony optimization
0.2599907152	data block
0.2598506485	approach performs
0.2598200639	existence of positive
0.2598124277	real time operation
0.2597959277	simple approach
0.2597504169	individual performance
0.2597185861	proposed in literature
0.2596245596	bit error rate ber performance of
0.2595839607	method based on
0.2595793059	propose two methods
0.2595485554	suffer from
0.2595174985	major problems
0.2594654456	conducted to compare
0.2593959551	based on multi agent
0.2593899701	real image
0.2593821550	providing quality
0.2593744413	interoperability among
0.2593452369	standard image
0.2591970829	information needed
0.2591901517	transmission system
0.2591655228	problem of maximizing
0.2590983355	based outlier
0.2590924019	an online community
0.2590633023	non periodic
0.2590306487	comparative study of
0.2590295343	computing approach
0.2590058345	a great deal of attention
0.2589700810	specific constraints
0.2589487416	frequency and time
0.2589131845	ibm system
0.2588193679	equations pdes
0.2588051312	a generic framework
0.2586523497	based protocol
0.2586137853	unsupervised manner
0.2586056384	2009 john wiley sons ltd
0.2585743778	approach applies
0.2585685332	linear feature
0.2585508660	sub linear
0.2585036141	non experts
0.2584811852	system architecture
0.2584643205	project called
0.2584249287	aims at improving
0.2583971611	any two nodes
0.2583889033	previously known
0.2583802606	f 1
0.2583760152	methods provide
0.2583531664	dependencies between
0.2583100019	methods for identifying
0.2582981791	planning methods
0.2582637675	delivery networks
0.2582615467	designed to provide
0.2582615112	improve robustness
0.2582396876	depth interviews
0.2582224479	this study examines
0.2582024815	stability problem
0.2581925591	exponential stability of
0.2581460725	scheme employs
0.2581364448	an artificial immune system
0.2581251472	images including
0.2580984159	stems from
0.2580862142	entire set
0.2580347993	main reason
0.2580335759	computation based
0.2580121705	computed in polynomial time
0.2580080137	3d models
0.2579619636	reduced set
0.2579584268	superior results
0.2579507262	complex plane
0.2579355510	an experimental evaluation
0.2579259473	adaptation process
0.2579177254	support decision making
0.2578607441	caused by
0.2577685530	data collected from
0.2577468568	an empirical evaluation
0.2577156519	belonging to
0.2577000423	invariant systems
0.2576731114	adaptive techniques
0.2576643647	obtained by solving
0.2576622870	three layered
0.2575567815	related brain
0.2575540104	sense multiple access
0.2574755051	design models
0.2574258295	future systems
0.2574131120	verification system
0.2573718711	3d ultrasound
0.2573684029	time consuming task
0.2573463768	this paper presents
0.2573420592	a novel hybrid
0.2573413767	this study investigates
0.2572765911	often neglected
0.2572363529	while still maintaining
0.2571830174	important applications
0.2571716027	two dimensional 2 d
0.2571666005	an architectural
0.2571586927	level simulation
0.2571182576	significant improvements over
0.2571134813	known upper bound
0.2571104319	difficult to achieve
0.2571036696	based recommendation
0.2570971559	vision applications
0.2570860112	key aspect
0.2570616145	optimal combination
0.2570475313	popular methods
0.2570061094	processing information
0.2569964333	development approach
0.2569880282	sized enterprises
0.2569469708	longer than
0.2569107965	3gpp long term
0.2569037578	highly dependent
0.2568695866	control process
0.2568619208	initial design
0.2568407434	detailed experimental
0.2567399014	gender differences in
0.2567387041	approximation based
0.2567350004	n bits
0.2566964422	version 2
0.2566175109	positively associated with
0.2565643949	higher levels of
0.2565171804	the proposed solution
0.2565033958	real time 3d
0.2564497142	p k
0.2564428508	last decade
0.2564223591	present simulation results
0.2564010848	management scm
0.2563967508	data sequences
0.2563860234	data mining techniques to
0.2563808704	10 years
0.2563633645	number of vertices
0.2563491661	strongly dependent on
0.2563060899	based service
0.2563033942	second stage
0.2561905140	exact algorithms for
0.2561844263	dynamic nature
0.2561282527	methodology called
0.2561007408	offer significant
0.2560953858	the first stage
0.2560912149	planning systems
0.2560805826	specifically developed
0.2560569119	large data set
0.2560226869	services including
0.2559597564	algorithms exist
0.2559595376	processing architecture
0.2559586818	a single image
0.2559466843	method to predict
0.2559296124	method makes
0.2559136207	average response time
0.2558868365	dynamic process
0.2558156601	earlier work
0.2557901644	reduce noise
0.2557783132	an important role
0.2557381459	in delay tolerant networks
0.2557354052	a hot topic
0.2557284554	significant impact
0.2557216259	2 and 3
0.2557098580	detection framework
0.2556501475	network theory
0.2556418956	multiple linear
0.2556150244	model training
0.2556046012	so far
0.2555803547	estimation using
0.2555629998	one to one
0.2555386289	analysis model
0.2554930753	proposed hybrid
0.2554845202	collaborative virtual
0.2554678916	recognition process
0.2554651361	associations among
0.2554026336	rate transmission
0.2553382575	relations between
0.2553280422	algorithm makes
0.2553085486	proposed strategy
0.2552967582	space agency
0.2552891584	to interference and noise ratio sinr
0.2552541413	similar approaches
0.2552484601	the art methods
0.2552459726	operation based
0.2551212763	generation techniques
0.2550852976	difficult to predict
0.2550642703	each iteration
0.2550548222	different abstraction levels
0.2550465306	the 21st century
0.2550380794	a great extent
0.2550379073	high level model
0.2549809735	an introductory
0.2549687472	the above mentioned
0.2549373464	ability to produce
0.2549142171	algorithm based on
0.2548689551	processing approach
0.2548619011	hardware systems
0.2548551759	the medial axis
0.2548500440	learning vector
0.2548305771	prediction technique
0.2548287922	based estimator
0.2548143572	neural network model for
0.2547926572	current standard
0.2547816609	robust against
0.2547335179	parallel model
0.2547205032	high computational
0.2547108615	based survey
0.2546922761	parallel approach
0.2546743834	partial channel
0.2546489734	aims at developing
0.2546235700	hot research
0.2546197918	massive amounts
0.2546196939	means of communication
0.2545903330	automated tool
0.2545874083	a goal oriented
0.2545516388	5 db
0.2545359613	helps to reduce
0.2544866489	recognition using
0.2544804196	conducted to demonstrate
0.2544452393	based network
0.2544406847	large storage
0.2544320324	modulation pwm
0.2543842995	images captured by
0.2543530449	acceptable level
0.2543094841	method to solve
0.2542905315	a direct comparison
0.2542205997	carlo simulation
0.2541886664	based on
0.2541886398	communication operations
0.2541871021	time and space
0.2541190605	upper bounds for
0.2540876293	negative effect on
0.2540391452	require additional
0.2539804742	alarm probability
0.2539655725	evaluated by comparing
0.2539604596	computing applications
0.2539237116	distances between
0.2539159790	simple to implement
0.2538891018	from scratch
0.2538131921	presented to validate
0.2538088605	a conceptual framework
0.2537956190	called multi
0.2537744700	release time
0.2537608624	identification results
0.2537541260	other peers
0.2537493946	computer screen
0.2537332922	correlation method
0.2536717087	increasing number of
0.2536487322	designed to assist
0.2536306601	self motion
0.2536002059	conducted to test
0.2535751967	examples demonstrate
0.2535648875	all pass
0.2535645077	custom made
0.2535302865	routing in wireless
0.2534511451	suggested approach
0.2533790958	online analytical
0.2533206759	efficiently support
0.2533164572	multiple antennas at
0.2532304381	systems ncss
0.2531649808	the proposed method achieves
0.2531414788	1 2
0.2531004885	based synthesis
0.2530642624	a genetic programming
0.2530626862	key feature
0.2530202336	level of accuracy
0.2529953938	comprehensive understanding
0.2529533812	a three level
0.2529310982	modeling simulation and
0.2529167147	unified view
0.2529146731	inspired approach
0.2528475417	simulations verify
0.2528075374	tends to zero
0.2528025480	mesh model
0.2527703886	the proposed scheme outperforms
0.2527331852	logistics system
0.2526951420	computing technologies
0.2526594202	processing performance
0.2526585690	time spent
0.2526175732	extracting information from
0.2526031859	mechanism based
0.2524670072	learning technique
0.2524448000	ar system
0.2524184869	extensive numerical
0.2524019905	proposed approaches
0.2523665550	the second step
0.2523124235	deeper understanding
0.2523116256	in mobile ad hoc networks manets
0.2523088567	information stored
0.2523018338	combined to form
0.2522880379	nonlinear system
0.2522696658	specific design
0.2522334760	approach for identifying
0.2522061870	paper reports on
0.2521487232	schemes including
0.2521222780	maximum independent
0.2521161882	technique for estimating
0.2520787890	the internet
0.2520532228	protocol parameters
0.2520497285	sub class
0.2520396821	ability to generate
0.2519860399	ask whether
0.2519686824	recognition system using
0.2519555519	conventional method
0.2519254137	the required number
0.2519090398	type information
0.2518593723	three dimensions
0.2518544724	the automotive industry
0.2517970204	an integrated model
0.2517894421	dynamical behavior of
0.2517489416	a finite horizon
0.2517293297	tracking problems
0.2517087717	topological properties of
0.2517066170	system combination
0.2516456567	model exhibits
0.2516261908	perform tasks
0.2515669525	paper develops
0.2515326430	3d video
0.2515241334	user side
0.2514840225	intelligent virtual
0.2514418837	user gaussian
0.2513933679	the special issue
0.2513705614	systems with
0.2513459252	n log
0.2513366754	2009 published
0.2513284645	2d mesh
0.2513234694	best path
0.2513231964	recently emerged as
0.2513117027	based cluster
0.2512871697	c 1
0.2512426358	reliance on
0.2511952294	conducted extensive
0.2511753473	huge amounts
0.2511626945	specific language
0.2511353856	based feature
0.2510249338	technique outperforms
0.2509070707	detection in wireless sensor networks
0.2508782073	control applications
0.2508665987	cost and time
0.2508120390	multiple input multiple output mimo system
0.2508098319	a bounded number
0.2507703296	connections between
0.2507536721	method for evaluating
0.2507044843	adaptation method
0.2506617340	3d volumetric
0.2506282482	article shows
0.2506004546	3d scenes
0.2505740389	based interface
0.2505537176	refer to
0.2505363453	publicly available data
0.2504740957	high angular
0.2504523611	this chapter
0.2504506203	based visualization
0.2504232075	interference caused
0.2504157289	main results
0.2504005980	first glance
0.2503952516	key performance
0.2503900817	authentication system
0.2503753857	minimum number of
0.2503424972	an adjustable
0.2503166446	based implementation
0.2502490991	crucial importance
0.2502229911	values of k
0.2502217651	a generative model
0.2502059804	diversity networks
0.2502048181	an incremental learning
0.2501662125	hampered by
0.2501331803	non metric
0.2501294141	much attention
0.2501185913	important aspect
0.2500237574	flow through
0.2499848019	ad hoc networks with
0.2499647645	long periods of time
0.2499595551	value prediction
0.2499589469	correspond to
0.2499442341	network path
0.2499001716	do not necessarily
0.2498972576	general nonlinear
0.2498839091	conventional linear
0.2497991044	the present paper describes
0.2497418367	comparative performance
0.2497219046	fuzzy k
0.2495857425	mean opinion
0.2495724484	wireless networks with
0.2494997145	interacts with
0.2494872995	experiment 1
0.2494664619	algorithm to compute
0.2493218907	complete problem
0.2493215989	walk model
0.2492815821	mining methods
0.2492567796	earlier results
0.2492484325	problem of determining
0.2492098135	an em
0.2491848597	method for determining
0.2491449282	node network
0.2491172055	face interaction
0.2490031293	model quality
0.2489944877	15 db
0.2489918737	uniquely determined by
0.2489754783	study illustrates
0.2489632658	main types
0.2489527162	similarities between
0.2489365995	per class
0.2489098037	overlap between
0.2488805481	drawing upon
0.2488299136	a low complexity
0.2488243987	depending on
0.2488159644	protocol performance
0.2487762072	functions including
0.2487165716	taking account of
0.2486930840	an optimal solution
0.2486635234	suffering from
0.2486542230	report results
0.2485777526	study explores
0.2485759559	3d shapes
0.2485666948	a new approach
0.2485550785	n 3
0.2485255886	10 20
0.2484645738	relative contribution
0.2484394820	q 2
0.2484387055	discrepancy between
0.2484100106	independent data
0.2484000939	square errors
0.2483762936	evolution de
0.2483684002	an approximation algorithm
0.2483675431	role played
0.2483593154	domain adaptive
0.2483343120	differs from
0.2483302538	large enough
0.2483075004	satellite system
0.2482684130	nervous system
0.2482679805	each pixel
0.2482536832	measured performance
0.2481817421	user devices
0.2481354105	driven approaches
0.2480828976	a black box
0.2480516948	rewriting system
0.2478298251	2d images
0.2477806483	technique requires
0.2477764350	available for download
0.2477403796	net model
0.2477176482	design features
0.2477029301	retrieval algorithms
0.2476658864	required to achieve
0.2475770941	optimal approximation
0.2474958554	system umts
0.2474774760	value function
0.2474693984	segmentation process
0.2474647656	dealing with
0.2474446140	level features
0.2474431911	h 1
0.2474160076	an image based
0.2473824507	an inverse problem
0.2473661995	degree at most
0.2473631035	search approach
0.2473621760	competitive results
0.2473549583	types of queries
0.2473337267	an ontological
0.2472991688	relevant results
0.2472641893	processing stage
0.2472624468	n s
0.2472602054	multiple radio
0.2472481283	computing architecture
0.2472277964	semantic relationships between
0.2472073954	based wireless networks
0.2471763528	system ais
0.2471714631	simulated environment
0.2471688527	collect information
0.2471578419	learning system
0.2471498503	adhere to
0.2471451598	system on chip
0.2471288082	based solutions
0.2471243069	unknown number
0.2470812896	oriented systems
0.2470654336	based relay
0.2470370411	width modulation
0.2470192791	fuzzy description
0.2469519271	efficient protocols
0.2469257009	a laboratory experiment
0.2468894635	intersection of two
0.2468652990	series forecasting
0.2468507659	the art
0.2468483311	routing problem with time windows
0.2468348597	data values
0.2467021428	the technology acceptance model tam
0.2466791517	specific challenges
0.2466716234	extended model
0.2466530468	real time system
0.2466431498	does not require
0.2466310613	high spectral
0.2466055538	common understanding
0.2465840980	coding systems
0.2465417311	almost optimal
0.2464946014	adaptive applications
0.2464574364	increasingly becoming
0.2464311829	loss of information
0.2463758159	experiments prove
0.2463283293	common methods
0.2462921581	level simulations
0.2462151677	effect transistor
0.2461979802	large dataset
0.2461974055	satellite remote
0.2461690463	expected performance
0.2461374625	driven web
0.2460322563	grows exponentially with
0.2460270826	a reinforcement learning
0.2460065988	verified by simulation
0.2459985115	this paper describes
0.2459446634	a parallel
0.2459134502	comparisons with existing
0.2458923965	local spatial
0.2458894964	denoted by
0.2458791918	based mesh
0.2458643009	testing whether
0.2458431436	more sophisticated
0.2458321748	the base station bs
0.2458219162	essential role
0.2457938797	method to select
0.2457897285	short time
0.2457881634	cooperates with
0.2457779271	users interact
0.2457744043	thinking about
0.2457339243	comprehensive framework
0.2456823486	at low signal to noise
0.2456059573	asymptotic behavior of
0.2455817424	model elements
0.2455815277	akin to
0.2455778490	spectral properties
0.2455728116	an eavesdropper
0.2454973670	a timely manner
0.2454936413	an iterative method
0.2454553251	very attractive
0.2454548616	an extensible
0.2454523973	based security
0.2453945118	emerging wireless
0.2453458571	total size
0.2453404683	recognition applications
0.2452879108	did not
0.2452732037	algorithms provide
0.2452689108	real time information
0.2452186601	seminal work
0.2451734144	closely related to
0.2451632792	performs significantly better than
0.2451084941	alarm rate
0.2448941655	the two images
0.2448800560	3d pose
0.2448659407	type algorithm
0.2448119532	the paper concludes
0.2447869482	based data mining
0.2447693519	vast majority of
0.2447332186	difficult to understand
0.2446365419	efficient ways
0.2445261593	based software
0.2444958507	shared information
0.2444870782	an upper bound
0.2444704098	approach helps
0.2444577370	present results
0.2444402007	practical experiments
0.2444275588	aim to provide
0.2444235134	simulation results indicate
0.2444033462	arising from
0.2443857252	a partir
0.2443758836	verified by simulations
0.2443517997	real world scenario
0.2443470511	control solution
0.2442618046	average value
0.2441305311	endowed with
0.2440584454	models provide
0.2440327428	n 12
0.2439451474	the session initiation protocol
0.2439330711	key issue
0.2439135124	inference system
0.2438967516	greater than or equal to
0.2438920086	presented finally
0.2438712730	significantly higher than
0.2438647819	important problem
0.2438265250	a p2p based
0.2438044946	algorithm applied
0.2436911405	h control
0.2436606106	networks ann
0.2436537551	example based
0.2436448171	relies on
0.2436121140	services offered by
0.2436093648	distributed system
0.2436010543	for wireless sensor networks
0.2435914914	simple models
0.2435508288	this tutorial
0.2435367610	flow information
0.2435176971	reducing energy
0.2434897217	mac protocol for
0.2434841075	posteriori map
0.2434740662	close to
0.2434036767	dictated by
0.2433614230	method lies
0.2433367912	application service
0.2433277915	detailed knowledge
0.2432919647	non adaptive
0.2432470008	planning system
0.2432342320	this article proposes
0.2432084255	well accepted
0.2432073633	based architectures
0.2430929098	vehicle routing problem with
0.2430726319	developed software
0.2430612383	a real challenge
0.2430288513	mappings between
0.2429052837	cpu time
0.2428487546	based selection
0.2428313488	between two nodes
0.2428114169	solving optimization
0.2426976939	graph of order n
0.2426886393	complies with
0.2426854565	belongs to
0.2426736303	still remains
0.2426697586	complemented by
0.2426473032	through extensive simulations
0.2426444683	natural human
0.2425890964	into account
0.2425375285	an open issue
0.2425087725	topology changes
0.2424995364	oriented application
0.2424555020	compared with existing
0.2424326486	model named
0.2424207179	s 1
0.2424024810	twenty four
0.2423991884	expected to provide
0.2423403594	influenced by
0.2423287662	reduced model
0.2423153647	implications for future
0.2423044295	leads to
0.2423008349	d 2
0.2422762309	the basal ganglia
0.2422733350	important concepts
0.2422640253	each cluster
0.2422439128	algorithm for minimizing
0.2422249435	while respecting
0.2422211984	conform to
0.2422180899	study involving
0.2421660599	an approximate solution
0.2421632620	acquisition system
0.2421011815	an ant colony
0.2420572721	algorithm enables
0.2420089176	graph h
0.2419645687	adhering to
0.2418915975	time constraints
0.2418203973	key pre
0.2418183452	adaptive software
0.2418142216	higher average
0.2418053169	knowledge model
0.2416845027	reversible data
0.2414479353	a collaborative filtering
0.2414210369	each voxel
0.2413740112	per second
0.2413347570	edge coloring of
0.2412961523	two dimensions
0.2412734358	n best
0.2412651520	s and t
0.2412203536	pendulum system
0.2411343062	f 2
0.2411119072	interactions between
0.2410298827	distributed manner
0.2410098751	the new data
0.2408364950	than ever before
0.2407951815	newton method for
0.2407878604	major research
0.2407770369	obtained results
0.2407353373	three step
0.2406939030	response functions
0.2406597610	the art approaches
0.2406100042	under certain conditions
0.2405636203	design factors
0.2405618935	the parity check matrix
0.2405248163	engineering community
0.2405209795	joint routing and
0.2405052321	groups of people
0.2404768053	experiments on real
0.2404616982	the ant colony
0.2404594609	an increasingly important role
0.2404469536	tool developed
0.2404431142	provide adequate
0.2404345087	check matrices
0.2402313642	solution set
0.2402044935	framework for building
0.2401980343	k uniform
0.2401206313	model makes
0.2401172962	the null hypothesis
0.2401118021	a multi objective optimization problem
0.2400747420	algorithm designed
0.2400690541	transform dct
0.2400426922	relations among
0.2400118985	non decreasing
0.2400024213	based motion
0.2400015827	methods include
0.2399924826	examples including
0.2399796809	common approaches
0.2399399501	current software
0.2399237159	point in time
0.2399024161	a semi supervised
0.2398693974	automatic construction
0.2398630956	less expensive
0.2398608995	time variation
0.2398347548	compared to
0.2398087844	thereby reducing
0.2397487060	identification using
0.2397467983	based on neural network
0.2397098808	very time consuming
0.2396046740	temporal changes
0.2395884278	to answer questions
0.2395130964	80211 standard
0.2394689180	compared to existing
0.2393619621	k edge
0.2393478217	directly applied
0.2393450597	a wavelet based
0.2393364646	automatic extraction of
0.2393361663	oriented language
0.2392946903	characterized by
0.2392565115	result obtained
0.2391891598	giving rise
0.2391340510	g of order
0.2390253010	multi agent system for
0.2390083751	levels of detail
0.2389928075	interaction hci
0.2389735025	maximum performance
0.2389169689	experiment results show
0.2388488679	in section v
0.2388468855	non interfering
0.2388176395	an immersive
0.2387310488	the unified modeling language
0.2387181824	functions defined
0.2387027205	interference channel with
0.2386871306	performs significantly better
0.2386635234	originating from
0.2386212420	interactive 3d
0.2386083926	time and energy
0.2385859190	task at hand
0.2385640082	simple algorithm for
0.2385350060	based solely on
0.2385314186	computing hpc
0.2384901751	estimated parameters
0.2383915935	characterised by
0.2383846645	cut algorithm
0.2383846084	engineering task
0.2383685247	significant features
0.2383595025	rely on
0.2383516927	the second stage
0.2383433923	replaced by
0.2383350719	sub images
0.2383255486	adaptive technique
0.2383002457	distortion performance
0.2382868181	example illustrates
0.2382339006	clinical decision
0.2382043293	measurements obtained
0.2381075947	one way
0.2380994644	constraint logic
0.2380909767	maximum value
0.2380617890	data transmission over
0.2380116710	first search
0.2379756682	substantial performance
0.2379628604	relatively easy
0.2379515308	hard problem
0.2378426176	relatively small
0.2378337906	log k
0.2378265768	development and evaluation of
0.2377821670	new directions
0.2377738727	more powerful
0.2377687434	a formal method
0.2377534270	provide useful information
0.2377234004	viewed as
0.2377153226	provide substantial
0.2376986075	data point
0.2376918097	maximum number of
0.2376890733	users to interact
0.2376767904	q 1
0.2376410781	setup time
0.2376046089	non coding
0.2375795223	the presented approach
0.2375778474	explained in detail
0.2375759856	surrounded by
0.2375638466	query q
0.2375404290	testing results
0.2374889169	chromatic number of
0.2374786355	set functions
0.2374782933	three years
0.2374721524	method for obtaining
0.2374578916	serves as
0.2374094498	approach for solving
0.2373956903	debate about
0.2373830402	a case study involving
0.2373753310	based decomposition
0.2373076016	results provide
0.2373070308	tend to
0.2372901942	output mimo systems
0.2372414914	sensing algorithms
0.2372299394	total transmission
0.2372122444	second order nonlinear
0.2371809244	a mobile device
0.2371794452	management policy
0.2371412643	frequency interference
0.2371352955	expected time
0.2371279338	and bound algorithm
0.2370953780	of utmost importance
0.2370551402	two parameter
0.2369225714	combine multiple
0.2369010923	level 3
0.2368959680	approach works
0.2368790962	antenna system
0.2368735552	high signal
0.2368307010	a bio inspired
0.2368236947	the proposed protocol
0.2368027214	a knowledge based system
0.2368002587	does not hold
0.2367933420	a high performance
0.2367696741	algorithm for detecting
0.2367679482	this paper investigates
0.2367521128	took part
0.2367208447	case scenarios
0.2367105321	m edges
0.2367094741	the paper presents
0.2367075938	huge amount of
0.2367055444	results in significant
0.2366648948	implementation shows
0.2366173776	dealt with
0.2365607379	both synthetic and real world
0.2365375647	related problem
0.2365209910	study aimed
0.2364469262	increased performance
0.2364136394	low communication
0.2363930002	time consuming and error
0.2363690745	more expressive
0.2363579038	synergy between
0.2363400648	current channel
0.2363012920	protection system
0.2362994122	processing system
0.2362240467	web rule
0.2361812488	basing on
0.2361491733	provide reliable
0.2361483057	rate per
0.2360225730	irrespective of
0.2359887628	fed into
0.2359872534	provided to verify
0.2359768395	management protocols
0.2359532415	all possible combinations
0.2359175184	level 1
0.2359073919	class 1
0.2359017952	compared to previous
0.2358993508	early results
0.2358980886	capable of supporting
0.2358869225	enhancement algorithm
0.2358458316	design task
0.2358359617	log n time
0.2357970551	practical method
0.2357823424	very expensive
0.2357685851	time step
0.2355825675	a novel adaptive
0.2355781477	motivated by
0.2355492932	in ubiquitous environments
0.2355156540	adoption and use
0.2355068285	require users
0.2354513754	well known
0.2354424787	information theoretical
0.2354290699	systems in general
0.2354003371	approach takes
0.2353857173	until recently
0.2353638131	current state of
0.2352998154	existing wireless
0.2352976446	large amount of data
0.2352554195	valuable information about
0.2352517295	promising candidate
0.2352496109	tolerant distributed
0.2352269045	solution called
0.2352261059	simple random
0.2352066128	1 norm
0.2351620292	doing so
0.2350930761	last decades
0.2350615318	priority traffic
0.2350555788	on multi core processors
0.2350416019	performs very well
0.2349809861	voltage v
0.2349411483	ranging from
0.2349185921	an optimal control problem
0.2349039043	the morphology of
0.2348892163	complex problem
0.2348362110	4 5
0.2348138024	recent technological
0.2347990042	inspired by
0.2347920318	problem of estimating
0.2347633766	susceptible to
0.2347156198	theoretic model
0.2346098059	depends on
0.2345874322	discussed including
0.2345769805	based tool
0.2345639043	single run
0.2345597048	ordinary least
0.2345568639	the new protocol
0.2345345362	achieve superior
0.2345307986	points of interest
0.2345033349	quality software
0.2344968745	knowledge about
0.2344957720	linear combinations of
0.2344489179	determines whether
0.2343308061	previous knowledge
0.2342792433	number of samples
0.2342343741	descriptor based
0.2342113310	explosive growth of
0.2341836821	machine interaction
0.2341775198	sequential algorithm
0.2341036860	technology enables
0.2340973241	simulation results obtained
0.2340884064	applications running on
0.2339748663	the other hand
0.2339312884	large public
0.2339203688	thorough evaluation
0.2339045331	promising approaches
0.2339009036	association between
0.2338922913	efficient computation of
0.2338727065	problem space
0.2338638530	discovery problem
0.2338569043	become very popular
0.2337560681	model for representing
0.2337390666	quadratic time
0.2337152838	target model
0.2336963251	a formal description
0.2336580265	9 10
0.2336024770	limited computational
0.2335794142	framework for analyzing
0.2334946122	large quantity of
0.2334785116	play important roles in
0.2334700316	current trend
0.2334026841	decentralized approach
0.2333650146	cellular networks with
0.2333536381	interactions among
0.2333255901	constant number
0.2333194041	user applications
0.2333079624	the paper argues
0.2332996428	performs much better than
0.2332941381	a graph theoretic
0.2332404066	the average bit error
0.2332080601	1 mhz
0.2331428462	our main contribution
0.2331183144	intended to provide
0.2331126036	lead to
0.2330241519	specific instruction
0.2330020062	an algebraic
0.2329841508	consistent results
0.2329368744	assumptions about
0.2329025431	provide additional
0.2328839207	required information
0.2328819937	checking tool
0.2328547480	efficient utilization
0.2327961937	15 years
0.2327923729	rate allocation for
0.2327819894	difficult to solve
0.2327316409	teaching system
0.2326656922	closed form expressions of
0.2326410476	necessary and sufficient conditions
0.2326384332	arrays fpgas
0.2326291964	open issue
0.2326087681	finite element method for
0.2326071752	current traffic
0.2325786245	equipped with multiple
0.2325235494	dynamical systems with
0.2324931282	resort to
0.2324858037	analysis phase
0.2324742168	to reduce power consumption
0.2324458614	present numerical results
0.2324384318	similarity between
0.2323840160	approach to estimate
0.2323418331	knowledge work
0.2323387080	total number of
0.2323355081	processing requirements
0.2323320359	experiment result
0.2322429960	set of rules
0.2322072447	in developing countries
0.2321492595	looked at
0.2321396636	the developed model
0.2321261992	the received signal
0.2321176696	difficult to analyze
0.2320717276	represented by
0.2320286185	numerical results show
0.2320009853	popular web
0.2319915031	online self
0.2319845535	synthesis systems
0.2319719328	in depth study
0.2319671538	study examined
0.2319322963	a large data set
0.2319111838	overall quality
0.2319091481	interoperability between
0.2318735587	near optimal performance
0.2318551167	to send
0.2318496107	dependencies among
0.2318364545	db respectively
0.2317803182	orthogonal frequency division multiple
0.2317282599	accurate solutions
0.2316985470	the proposed algorithms
0.2316355063	level of service
0.2316203503	the decision making process
0.2316196917	different perspectives
0.2315525356	generation 2
0.2315470628	detailed design
0.2315418375	the presented algorithm
0.2315370437	complex process
0.2315338938	cad system
0.2314636881	the past decades
0.2314414614	input information
0.2314294591	extraction technique
0.2313885513	time and cost
0.2313601833	an interoperable
0.2313577654	security problem
0.2313485814	self optimization
0.2313199859	issues involved
0.2312697294	n node
0.2311898135	framework for studying
0.2311675062	deviates from
0.2311496383	out of n
0.2311157879	optimal set
0.2311144468	sensing techniques
0.2311015665	each time slot
0.2310284816	efficient management of
0.2309789732	inserted into
0.2309587352	model takes into account
0.2309067875	x 1
0.2309021003	time delay systems with
0.2308757111	method for analyzing
0.2308596111	change based
0.2308261819	a constant factor
0.2308121014	target information
0.2308008222	key requirement
0.2307612885	higher energy
0.2307328809	predictive value
0.2306487469	a two layer
0.2306351305	properties including
0.2306327856	the proposed controller
0.2306237168	based modeling
0.2305887377	classified into
0.2305393991	information contained in
0.2305379890	generation system
0.2304983208	a wireless ad hoc network
0.2304896470	processing technologies
0.2304793427	many real world applications
0.2303938388	improves upon
0.2303816594	much shorter
0.2303793006	a heuristic algorithm
0.2303037977	multiple ways
0.2301924472	compared against
0.2301863488	an automated method
0.2301845960	critical parameters
0.2301690631	a real time
0.2301402366	very promising
0.2301255550	open distributed
0.2301121043	length m
0.2300954752	view video
0.2300886963	a performance comparison
0.2300458509	checking problem
0.2300449740	single object
0.2300421702	results validate
0.2300235268	the destination node
0.2299995340	near perfect
0.2299857772	large graph
0.2299054626	complex spatial
0.2298805151	depend on
0.2298733757	distance d
0.2298661924	important challenge
0.2298621136	a differential evolution
0.2298418355	provide simulation results
0.2298275504	control lyapunov
0.2298051000	bring together
0.2297328778	distance between
0.2297024856	a parallel algorithm
0.2296964272	techniques to detect
0.2296936671	dynamic program
0.2296556024	on graphics processing units
0.2295993950	the proposed scheme improves
0.2295107850	varying degrees of
0.2295086688	number of messages
0.2295071885	de software
0.2295065636	order polynomial
0.2294705413	paper surveys
0.2294665594	times higher
0.2294408002	promising research
0.2294360761	method for calculating
0.2294345750	step method
0.2294032060	important parts
0.2293912928	approaches rely
0.2292812512	an open loop
0.2292664330	cover time
0.2291139664	aims at
0.2290611485	studies showed
0.2290370227	the available data
0.2290293013	issues including
0.2289649805	an analytical expression
0.2289392027	based services
0.2289003093	alternative solution
0.2288842293	concentrate on
0.2288749907	method consists
0.2288181644	up to 70
0.2287747776	model based on
0.2287490441	five years
0.2287460894	computer vision techniques
0.2287434587	carlo simulations
0.2287411075	k 3
0.2287330553	framework to support
0.2287103095	approach considers
0.2286512684	aims to investigate
0.2286512646	closed form solutions for
0.2286488780	b and c
0.2285723109	significant computational
0.2284922256	a neuro fuzzy
0.2284174569	an executable
0.2284165414	design goal
0.2283497840	this letter presents
0.2283477015	number n of
0.2283424705	programming problems with
0.2283350688	processing strategies
0.2283280558	class of linear
0.2283119591	relying on
0.2282988877	explicitly model
0.2282466194	one cycle
0.2282282782	after reviewing
0.2282260082	the physical world
0.2282024334	model offers
0.2281797099	achieve good performance
0.2281694480	g 2
0.2281552460	the original image
0.2281239888	national institute of
0.2280171299	originates from
0.2279467943	resulting models
0.2278874462	expression data analysis
0.2278794458	maximal number of
0.2278423222	weaker than
0.2278421457	a random walk
0.2278276461	qa system
0.2278006595	provide feedback
0.2277921329	first principles
0.2277885438	in wireless mesh networks
0.2277480598	exactly once
0.2277386883	main problem
0.2276610396	a distributed fashion
0.2276575044	the past several years
0.2276342988	very encouraging
0.2276307258	automatic segmentation of
0.2276269916	mesh networks with
0.2275968047	delay time
0.2275928585	a two level
0.2275229577	successfully applied to
0.2275102042	equipped with
0.2274795602	a single chip
0.2274424607	an input image
0.2274178434	provide detailed
0.2274082321	services provide
0.2273833292	performance model
0.2273781997	conforms to
0.2273652531	finally simulation results
0.2272623329	traditional statistical
0.2272186571	affected by
0.2271932272	1 0
0.2271817774	memory storage
0.2270901745	performs well
0.2270572461	in recent years
0.2270427622	systems provide
0.2270208919	prevention system
0.2269856727	measures including
0.2268902615	new bounds
0.2268715924	non standard
0.2268333086	derived finally
0.2268236388	in such networks
0.2268119072	correlation between
0.2267778597	n 4
0.2267729693	strategies to improve
0.2267577415	the fusion center
0.2267224138	segmentation method based on
0.2267174547	desired performance
0.2267079556	a single machine
0.2266888801	determining whether
0.2266645176	based upon
0.2266468933	higher than
0.2266348241	paper concentrates
0.2265932921	providing efficient
0.2265684140	an autonomic
0.2265288437	static data
0.2264745688	process involves
0.2264363477	variable bit
0.2264237326	3d display
0.2264082302	key advantage
0.2263762311	based filtering
0.2263095185	a significant challenge
0.2262969718	class of generalized
0.2262200346	quantum well
0.2262146355	paper shows
0.2261887620	degree of accuracy
0.2261828763	scenarios including
0.2260633069	reconfigurable system
0.2260512498	time and memory
0.2260429724	thereby allowing
0.2260200127	based privacy
0.2260153297	results also demonstrate
0.2259941321	errors caused by
0.2259361748	probability p
0.2259329099	results indicate
0.2258661758	a context free
0.2258635857	the total power consumption
0.2258304901	viable approach
0.2258001215	accurate analytical
0.2257511111	a simulated annealing
0.2257034054	method to extract
0.2256746665	control of nonlinear
0.2256636198	at runtime
0.2256371969	questions about
0.2256338991	scheme requires
0.2256178341	obtained by combining
0.2255794575	based translation
0.2255750558	an expert system
0.2255522568	research design
0.2255495384	explicit formula
0.2255048365	a trust based
0.2254497462	great extent
0.2254282381	reported results
0.2254147588	1 db
0.2253984265	non linear systems
0.2253883765	significant difference between
0.2253818639	the three methods
0.2253413552	problem in wireless sensor networks
0.2253220802	80211 wireless
0.2253078922	an anonymous
0.2252855807	exchange data
0.2252060489	n e
0.2251583738	n 1 n
0.2251344590	g contains
0.2251328453	1 v
0.2251322708	the article concludes
0.2251266242	t 2
0.2251097451	take care
0.2250360909	new perspectives
0.2250085222	control information
0.2250050815	cater to
0.2249732345	to date
0.2249605237	time constants
0.2249373558	20 years
0.2248865110	a fuzzy rule
0.2248690263	an optimized
0.2248579629	process mean
0.2248186714	a big challenge
0.2247959281	techniques provide
0.2247498829	the level set method
0.2247161737	on chip soc
0.2246569285	standard approaches
0.2246337851	transitions between
0.2246100872	a new hybrid
0.2245865826	step forward
0.2245777575	a single relay
0.2244756437	an opportunistic
0.2244647656	focuses on
0.2244383668	randomly assigned to
0.2244306821	control requirements
0.2244197946	authentication using
0.2243985192	times larger
0.2243933290	flexible job
0.2243596941	new products
0.2242981525	extract information from
0.2242339196	necessary and sufficient
0.2241995242	based methodology
0.2241846811	performance scalability
0.2241701478	architecture ea
0.2241452680	a decision making
0.2241070126	integrated framework
0.2241005788	performance evaluation of
0.2240924425	object of interest
0.2240328067	c means algorithm
0.2240291778	approach includes
0.2240211439	based procedure
0.2239688963	thereby enabling
0.2239348000	transmission techniques
0.2238925674	results extend
0.2238906847	the left ventricle
0.2238816529	systematic approach
0.2238445048	resolution satellite
0.2237426386	efficient service
0.2237134671	function called
0.2237021905	system reliability
0.2236874621	gain insight
0.2236540322	across domains
0.2236425401	attributable to
0.2236105689	deals with
0.2236020687	resorting to
0.2235860792	time steps
0.2235534848	become increasingly
0.2235247211	the two schemes
0.2235051743	np completeness of
0.2234862339	level programming
0.2234558857	the paper shows
0.2234526247	images experimental results
0.2234225928	evolutionary multi
0.2233661124	lot of research
0.2233426310	t k
0.2232693755	observation data
0.2232614758	process performance
0.2232116790	a novel method
0.2232009934	up to 50
0.2231769162	oxygenation level
0.2231454994	order accuracy
0.2231454900	distributed access
0.2231250426	as features for
0.2231219452	interesting applications
0.2230903090	dimensional markov
0.2230802999	average power ratio
0.2230160957	least significant
0.2230093363	dynamic voltage and frequency
0.2230078985	scheduling in wireless
0.2230026927	depends only on
0.2230008154	check matrix
0.2229988575	paper seeks to
0.2229932787	attractive solution
0.2229737584	the cell be
0.2229028134	this paper introduces
0.2228950060	every edge
0.2228795041	the two models
0.2228739325	automatic selection of
0.2228695068	to achieve high performance
0.2228522091	a matter of fact
0.2228212696	concentrates on
0.2227922757	a full fledged
0.2227807558	in porous media
0.2227800982	change over time
0.2227525679	illustrative example
0.2227401107	simulations performed
0.2226777898	the model checking problem
0.2226714217	becomes increasingly
0.2226658362	at most k
0.2226381983	significant decrease
0.2226360648	to gain insight
0.2226152251	j comput chem 2009
0.2225486442	produce accurate
0.2225406757	noisy or
0.2225247211	of such networks
0.2225233926	the new features
0.2225232539	computer technology
0.2225231220	results achieved
0.2224456699	an illustration
0.2224015171	switching between
0.2223976694	degree of flexibility
0.2223690209	resolution image
0.2223476676	ratio llr
0.2223423485	referred to as
0.2222065554	on demand routing
0.2221235833	relevance vector
0.2221103419	strongly related
0.2221044168	achieve low
0.2220909968	method determines
0.2220704567	performed to validate
0.2220615735	the proposed schemes
0.2220414992	efficient transmission
0.2220352583	few studies
0.2220075616	a new method
0.2220058456	model structures
0.2219787603	m 3
0.2219528560	2009 john wiley
0.2219383048	design parameter
0.2219355264	algorithm for extracting
0.2218606942	the two problems
0.2218152208	i n
0.2218143798	the emd
0.2218082797	the gaussian mixture
0.2217952004	deal with
0.2217473635	accurately model
0.2217421069	structure activity
0.2217411771	finally experimental results
0.2217346808	system call
0.2216485306	of such models
0.2216026906	based communication
0.2216013303	errors introduced
0.2215932093	lack of knowledge
0.2215913998	approach for estimating
0.2215318294	the optimal solution
0.2215285133	fixed number
0.2215166915	in noisy environments
0.2214809321	software transactional
0.2214751811	results generalize
0.2214290645	our main result
0.2214148315	consists of two main
0.2213642409	classifier based
0.2213516484	based peer to peer
0.2213314203	encoding algorithm
0.2212968121	o 2
0.2212695450	the proposed approach outperforms
0.2212277540	based index
0.2212256079	network called
0.2211733769	referring to
0.2211483926	the new proposed
0.2211281812	effective solution
0.2211188110	control approach for
0.2210493945	the steady state
0.2210291740	determine whether
0.2210095337	streaming system
0.2210043590	large volumes of
0.2209752408	formal definition of
0.2209607491	problem in wireless sensor
0.2209349007	the general case
0.2209103785	sets of data
0.2208785784	environment called
0.2208713199	method for measuring
0.2208499412	minimum time
0.2207653534	based metrics
0.2207479248	basic concept
0.2207422302	cell be
0.2206877770	focused mainly on
0.2206657952	over wireless networks
0.2206600656	model supports
0.2206229453	providing information
0.2205463730	images with different
0.2205243418	provide users with
0.2204888216	an attractive alternative
0.2204498495	called generalized
0.2204482788	a fuzzy logic
0.2204405047	a fully automatic
0.2203380491	obtained finally
0.2203011014	performance levels
0.2202777840	transform method
0.2202759333	number of particles
0.2202641487	important tasks
0.2202432660	large problems
0.2201958913	order n
0.2201915800	certain circumstances
0.2201622989	checking whether
0.2201496929	library system
0.2200733557	sub networks
0.2200644079	multiple input multiple output mimo orthogonal
0.2200478124	using monte carlo
0.2199999565	commonly referred to as
0.2199989492	a model checker
0.2199852301	benchmark results
0.2199669933	40 years
0.2199252189	for comparison purposes
0.2198712998	a location based
0.2198630796	achieve similar
0.2198143040	preceded by
0.2197424083	wide variety of
0.2197201966	to peer p2p
0.2197067792	scheme shows
0.2197058278	thought of as
0.2196916097	driven approach for
0.2196890653	based on wavelet
0.2196631837	overall efficiency
0.2196612012	net work
0.2196145299	this article explores
0.2195328420	equally well
0.2195310765	10 fold cross
0.2195233926	the two techniques
0.2195211059	this study proposes
0.2194917891	the proposed algorithm achieves
0.2194748804	outside world
0.2194699777	solution obtained
0.2194682101	agree well with
0.2194649596	the neural correlates
0.2194604460	hypotheses about
0.2194428713	well studied
0.2193592124	tracking application
0.2193393830	even worse
0.2192790618	own right
0.2192710790	validated against
0.2192251356	a new fuzzy
0.2192162135	tracking using
0.2191575043	few iterations
0.2191552848	efficient algorithm
0.2190680517	viable alternative
0.2190622879	zero order
0.2189758670	leave one
0.2189589631	information about
0.2189397929	in order to reduce
0.2189384812	driven simulation
0.2189085316	attention recently
0.2188757594	a daily basis
0.2188345115	serve as
0.2188065976	practical problem
0.2188009571	in real time on
0.2187951231	put together
0.2187565610	payment system
0.2187399370	workshop on
0.2187191405	increasing availability of
0.2186859346	results include
0.2186774386	a single camera
0.2186535134	an increasingly important
0.2186332764	approach addresses
0.2186221991	tight lower
0.2185370807	focusing on
0.2184924816	standard test
0.2184351035	an optimization problem
0.2184181282	amenable to
0.2184009348	automation system
0.2183726308	operations performed
0.2183704786	k vertices
0.2183683882	based simulator
0.2182856617	approach to determine
0.2182341248	system of linear equations
0.2181483435	this article introduces
0.2180972526	resolution video
0.2180875149	of such applications
0.2180820099	consumes less
0.2180734767	the end effector
0.2180202348	clustering algorithm based on
0.2180165646	4 d
0.2179886741	approach supports
0.2179793958	approaches provide
0.2179397929	in order to achieve
0.2179395207	k 0
0.2179355472	devoted to
0.2179250445	time and frequency domains
0.2179201624	2 n
0.2179146051	bayesian information
0.2179119184	time instant
0.2178981111	integrated approach to
0.2178949096	zero one
0.2178884797	a fully decentralized
0.2178324669	method takes
0.2178279017	the total energy consumption
0.2177932186	taken place
0.2177569995	control problem with
0.2176597580	relaxation time
0.2175958317	more precise
0.2175335891	number of variables
0.2175070704	weighted least
0.2174803775	this paper discusses
0.2174524438	level security
0.2174162577	set of solutions
0.2173921299	efficient utilization of
0.2173190533	complex interaction
0.2172832049	expressed in terms of
0.2172794839	a content analysis
0.2172192881	data complexity
0.2172190189	likelihood estimates
0.2172112727	external information
0.2171950912	sources including
0.2171454802	sensing methods
0.2171350688	consistent with previous
0.2170998438	an object
0.2170985587	novel interface
0.2170935152	constant c
0.2170518650	employed to reduce
0.2170419424	an unsupervised
0.2170147541	a graph gve
0.2170082088	approach for developing
0.2169707175	supported by
0.2169674378	significant improvement over
0.2169405724	transmissions over
0.2169312827	a challenging task
0.2168979866	interfere with
0.2168890123	each job
0.2168724993	the last few decades
0.2168606942	the available information
0.2168499694	comparable or better
0.2168296066	the law of
0.2168109104	a proof of concept implementation
0.2167874102	set of points
0.2167535872	a supply chain
0.2167206438	based mobility
0.2166418260	gives rise to
0.2166344708	number of steps
0.2165735108	process technologies
0.2165687343	3 d space
0.2165671396	numerical results indicate
0.2165442357	means clustering algorithm
0.2165124159	very small
0.2165006313	last years
0.2164977176	online algorithm for
0.2164807034	extend previous
0.2164400439	becoming popular
0.2164323872	ratio combining
0.2164100038	specific case
0.2164008013	technologies including
0.2163906705	always exists
0.2163584758	based on fuzzy
0.2163436661	very few
0.2163079700	normally distributed
0.2162967578	paper aims to
0.2162935228	a low power
0.2162928218	simple solution
0.2162881673	primary visual
0.2162875900	multicarrier code
0.2162824805	instead of relying
0.2162817158	more realistic
0.2162733259	management approaches
0.2162612119	provide accurate
0.2162438616	shed light on
0.2162275430	box testing
0.2162079438	a promising alternative
0.2161954416	key design
0.2161953675	multiple levels
0.2160598073	a reduced complexity
0.2160582573	visual system
0.2160453114	the proposed methods
0.2160031807	traditional web
0.2159566884	vary depending on
0.2159238955	convergence time
0.2159071558	conventional systems
0.2158495818	the optimal policy
0.2158486564	in order to maximize
0.2158206615	mining tool
0.2157885588	information received
0.2157368612	using support vector
0.2157350498	think about
0.2157338924	conducive to
0.2156943861	or equivalently
0.2156598960	data collected by
0.2156380242	provided to validate
0.2156276759	injected into
0.2156200818	specific data
0.2155814803	correspondence between
0.2155802563	better suited
0.2155771888	functions f
0.2155260526	classifier system
0.2154907815	designed to facilitate
0.2154231945	each time step
0.2153844216	solved in polynomial
0.2152247196	provide insights into
0.2152244989	categorized into
0.2152103956	plus noise
0.2152077551	a fully integrated
0.2151713730	image and then
0.2151616853	low transmission
0.2151578499	clearly outperforms
0.2151557572	method includes
0.2151116417	rather than
0.2151094428	a long standing
0.2150151392	quality solutions
0.2149670373	high traffic
0.2149457593	current understanding
0.2149229866	relied on
0.2149122097	promising approach
0.2148871849	an unsupervised learning
0.2148825624	makes use of
0.2148584624	new developments
0.2148512221	a two tier
0.2148328318	second derivatives
0.2148214945	needed to support
0.2147469371	the current paper
0.2147469219	passing through
0.2147311084	the semantic web
0.2147291314	provide insight into
0.2146715680	a similarity measure
0.2146408790	complex information
0.2146386696	periodic solutions for
0.2146327430	based information
0.2146240504	quantitative assessment of
0.2145992374	general class of
0.2145862383	implementation results
0.2145792686	more accurate
0.2144824894	shown to provide
0.2144759571	in real time using
0.2144501720	lower than
0.2144391512	a content based
0.2144370403	in order to avoid
0.2143540000	an order of magnitude
0.2142844328	growing interest
0.2142521708	problem consists in
0.2141335635	improve retrieval
0.2140948313	using evolutionary algorithms
0.2140799274	traditional method
0.2140784968	benefits of using
0.2140549452	an open problem
0.2140432571	reduced computational
0.2138779174	consisting of
0.2138509631	mapped into
0.2138384708	main tool
0.2137986975	based intrusion
0.2137767644	confidentiality integrity and
0.2137684778	an emerging technology
0.2137543225	the present article
0.2137495645	immediately after
0.2137422540	study suggest
0.2137175586	the past few years
0.2137154021	positive impact on
0.2137020308	potentially large
0.2136934864	employed to estimate
0.2136872279	important research
0.2136637739	large number of users
0.2136576539	testing problem
0.2136415898	model to simulate
0.2135892939	term evolution
0.2135774559	able to detect
0.2135219484	needed to achieve
0.2134762938	processing step
0.2134240395	remains open
0.2133376604	a powerful tool
0.2133354830	approach shows
0.2132907357	simulation algorithm
0.2132869137	compared with previous
0.2132718670	wireless sensor networks based on
0.2132676569	actual performance
0.2132595014	model takes
0.2132527037	providing users
0.2132406130	result indicates
0.2132264038	of system parameters
0.2132264038	the given data
0.2131003542	based ontology
0.2130829156	time bound
0.2130593688	problem of identifying
0.2130112704	tension between
0.2129883702	mismatch between
0.2129838885	consisted of
0.2129810895	scheme based on
0.2129070122	an end user
0.2128901947	time complexity
0.2128794965	r 3
0.2128485700	very difficult
0.2128235901	helps to improve
0.2128116527	a field programmable gate array fpga
0.2128016835	field analysis
0.2127881325	swarm optimization algorithm for
0.2127041622	techniques employed
0.2127020998	the obtained results
0.2126115584	a large scale
0.2125921810	supervised approach
0.2125745112	order information
0.2125741184	limited training
0.2125686644	results showing
0.2125322173	lower bound on
0.2124140229	generated data
0.2123125964	division multiplexing ofdm system
0.2123072642	the closed loop
0.2122499666	an infinite dimensional
0.2122353319	concerned about
0.2122008490	a gaussian mixture model
0.2121919538	increasing number
0.2121728291	time sharing
0.2121557679	in terms of linear matrix inequalities
0.2121249850	for wireless ad hoc networks
0.2120537647	values obtained
0.2120475635	development and use of
0.2120457056	robust face
0.2120036719	required to implement
0.2119869635	complex algorithms
0.2119786491	depending only on
0.2119781287	adaptive chosen
0.2119405899	paper outlines
0.2119195008	number of
0.2118651396	tools developed
0.2118516944	euclidean distance between
0.2118161620	a product line
0.2117903668	retrieval using
0.2117848695	3 4
0.2117760024	validated by simulation
0.2117257338	based location
0.2116897253	further investigation
0.2116886707	an interesting alternative
0.2116470213	class of functions
0.2115689334	an intermediary
0.2115261118	access to
0.2115144623	help students
0.2115063267	higher accuracy than
0.2114897905	generic framework
0.2114670561	afforded by
0.2114328643	empirical results show
0.2113994736	per cycle
0.2113490991	this book
0.2113349227	hundreds of millions of
0.2113285353	less than 10
0.2113046719	conditions including
0.2112886695	over approximation
0.2112812293	experiments on synthetic
0.2112764187	the gaussian mixture model
0.2112598102	into consideration
0.2112535076	results confirmed
0.2112238632	a fast
0.2112215304	originate from
0.2112115875	all pairs
0.2111987930	method to automatically
0.2111972914	designed to enable
0.2111514383	extraction using
0.2111484953	focused on
0.2111431676	improve accuracy
0.2110837870	results demonstrating
0.2110547554	papers published in
0.2110451534	based similarity
0.2110405715	more than 90
0.2109149805	growing complexity
0.2108661739	interest group
0.2108534608	a comparative evaluation
0.2107978394	general approach
0.2107569899	linear methods
0.2107473810	in order to obtain
0.2107165012	methods perform
0.2106744211	data from different
0.2106723154	an 8 bit
0.2106646321	graphs g
0.2106209952	important property
0.2106095944	efficient algorithms for
0.2106080091	c and c
0.2106064595	in order to improve
0.2105884218	send data
0.2105865571	significant impact on
0.2105414286	positive predictive
0.2105200916	depends not only on
0.2104486788	interaction between
0.2104331772	an image
0.2104112002	resolution remote sensing
0.2104040729	higher power
0.2103506958	an exhaustive search
0.2103203343	provide significant
0.2102507916	an auction
0.2102264038	for such networks
0.2102187221	larger set
0.2102140298	1 ghz
0.2101558067	language text
0.2101409190	comply with
0.2100407539	idea behind
0.2100256555	evaluation model for
0.2100174949	three year
0.2099740952	areas of interest
0.2099676687	research investigates
0.2098966795	specific learning
0.2098929844	protocol for wireless
0.2098753187	malicious web
0.2098431336	approach facilitates
0.2097949781	paper concludes by
0.2097931384	applied to
0.2097851433	functions defined on
0.2097822352	filtering systems
0.2097558872	desired information
0.2097528565	new generation
0.2097358654	simple but efficient
0.2097324552	type system
0.2097084539	equation modeling
0.2096843707	examples to illustrate
0.2096611656	few examples
0.2096586330	provide students
0.2096167403	simple local
0.2095850449	upper and lower bounds on
0.2095752693	capable of solving
0.2095727736	oriented paradigm
0.2095284151	data size
0.2094856942	for such applications
0.2094677552	mining technique
0.2094674951	subset of features
0.2094247938	without explicit
0.2094166723	broad range of
0.2093743388	based platform
0.2093621564	non sequential
0.2092755066	framework to study
0.2092352058	means clustering
0.2091903634	analytical expressions for
0.2091881799	each agent
0.2091713730	data available in
0.2091179785	shed light
0.2091054041	peer systems
0.2091028422	work related
0.2090593585	system under test
0.2090257643	an assistive
0.2090125106	borrowed from
0.2090105653	dominated by
0.2089573321	process requires
0.2089439464	based training
0.2089409665	relatively little
0.2089368009	traffic generated
0.2088603871	a tcp
0.2088590458	the paper describes
0.2088546437	registration using
0.2088522390	set of experiments
0.2088278823	general result
0.2087816243	this article investigates
0.2087602705	an institutional
0.2087601515	human decision
0.2087474586	every year
0.2087356171	scheduling problem with
0.2087228229	random walks on
0.2086845789	the paper illustrates
0.2086667573	based only on
0.2086631688	performance impact of
0.2086316820	domination number of
0.2085855620	discussed in detail
0.2085690281	optimal results
0.2085632197	dependent upon
0.2085139182	a heuristic based
0.2085065865	a flexible
0.2084865567	paper concentrates on
0.2084816617	kinds of
0.2084579107	a case
0.2084483556	study comparing
0.2083458522	shows better performance
0.2083087072	carrier interference
0.2082902238	important roles
0.2081546973	an evolutionary
0.2081150545	tagging system
0.2081006445	the moment generating function
0.2080845302	an improved algorithm
0.2080753135	exponential number of
0.2080589017	concerned with
0.2080359330	detection error
0.2080321730	the search space
0.2080319795	compare favorably with
0.2079689645	networks require
0.2079221131	closed form expression of
0.2078680769	to maximize
0.2078487536	to support decision making
0.2078230545	a closed form
0.2078069038	management approach
0.2077716075	upon request
0.2077481514	in order to overcome
0.2076929645	a systemic
0.2076844497	sinr at
0.2076291408	a two step
0.2075714217	much smaller
0.2075112381	data gathered from
0.2075105400	far beyond
0.2074859652	adaptive image
0.2074247666	in real time to
0.2074180119	the proposed estimator
0.2074141447	focussed on
0.2073929871	2 ghz
0.2073857705	class of problems
0.2073518107	effective means
0.2073454320	among peers
0.2073248952	to detect malicious
0.2073244302	classification algorithm based on
0.2072682791	zero if
0.2072634707	code changes
0.2072176739	a comparative
0.2072066335	contribute to
0.2072035352	an idealized
0.2071833254	designed to meet
0.2071721928	reduction algorithms
0.2071610513	optimal combination of
0.2071556489	non technical
0.2070994160	other agents
0.2070840837	number of dimensions
0.2069789378	an integer programming
0.2069764038	of such algorithms
0.2069633169	an important factor
0.2069243418	a knowledge base
0.2069213804	european journal of
0.2069192479	distributed channel
0.2069177894	n jobs
0.2069141817	a challenging problem
0.2068767425	application called
0.2068575892	recognition problems
0.2068197475	most powerful
0.2067993437	based formulation
0.2067900405	resonance imaging
0.2067415544	accounted for
0.2067322746	3d surface
0.2067196158	an intruder
0.2066827497	required to perform
0.2066589668	a perfect matching
0.2066379807	a compact representation
0.2066291741	a fault tolerant
0.2066016282	a comprehensive approach
0.2065993375	new trends
0.2065760298	upper bound for
0.2065727488	achieved by applying
0.2065694376	decision procedure for
0.2065555725	dimensional problems
0.2065521185	an indoor environment
0.2065409058	passing interface
0.2065310188	confronted with
0.2065104098	based micro
0.2064826712	an e commerce
0.2064225635	users with different
0.2063687086	with imperfect
0.2063026305	future work
0.2062967742	some sufficient conditions
0.2062725138	known and unknown
0.2061954840	low hardware
0.2061674490	threefold first
0.2061475073	3d structure
0.2061445473	without revealing
0.2060962497	best suited
0.2060951259	to translate
0.2060879232	conceptions of
0.2060615735	the proposed mechanism
0.2060421579	a new metric
0.2060380550	the receiver operating
0.2059978559	information available to
0.2059774530	12 v
0.2059652460	trend towards
0.2059339552	important task
0.2058977620	the symbol error rate ser
0.2058819300	metrics including
0.2058381907	received data
0.2058319930	radio system
0.2058273956	algorithm offers
0.2057942481	a prototype tool
0.2057800961	large quantities of
0.2057318607	experimental results obtained from
0.2057232058	logic control
0.2057150461	the scientific community
0.2056814658	results support
0.2056452877	the diversity multiplexing tradeoff
0.2056356768	for microwave access wimax
0.2055865065	in multihop wireless networks
0.2055436047	recently presented
0.2055274471	still lacking
0.2054774733	kernel data
0.2054405368	in order to minimize
0.2054170497	system safety
0.2054065531	order derivative
0.2053865531	current algorithms
0.2053458834	different viewpoints
0.2052868466	data detection
0.2052696428	distinguish between
0.2052292095	extremely useful
0.2052283688	key step
0.2052260966	approach for building
0.2052245835	higher performance than
0.2052188443	a mixed reality
0.2051430489	results suggested
0.2051260298	protocol for mobile
0.2050581164	the sum capacity
0.2050559477	high error
0.2050318180	data suggest
0.2049892857	automated detection
0.2049684233	attributed to
0.2049654238	switched system
0.2049652192	frame work
0.2049645875	stochastic dynamic
0.2049107230	to fine tune
0.2048994599	this workshop
0.2048817731	approach adopted
0.2048767857	reduce memory
0.2048676909	a different approach
0.2048461894	higher detection
0.2048270729	to teach
0.2048218947	the swiss
0.2048059375	provide recommendations
0.2048004638	based on support vector machines
0.2047913141	this study explores
0.2047838681	applied to extract
0.2047568277	stochastic neural
0.2047408712	the source relay
0.2047205661	space representation
0.2047172561	approach to solve
0.2047075492	cost per
0.2045905375	proposed design
0.2045537424	state of
0.2044329489	the secret key
0.2044287579	real biological
0.2044222164	experimental results shows
0.2043427618	of knowledge in
0.2043394434	good quality
0.2043084502	every k
0.2042818573	per unit time
0.2042656684	fold cross
0.2042523125	typical application
0.2041982852	fuzzy association
0.2041460203	level data
0.2041321995	performance depends
0.2040903313	composition of web
0.2040795508	starting from
0.2040434368	application running
0.2040418112	this paper
0.2040086465	coming from
0.2039872334	less than
0.2039435609	per year
0.2038769249	very challenging
0.2038525885	robot based
0.2038525415	traditional search
0.2038408979	a few seconds
0.2038144419	conceptual model for
0.2037990403	methods for computing
0.2037954296	reduction in power
0.2037641810	e 1
0.2037601084	unique feature
0.2037534760	the time of
0.2037326533	study presents
0.2036667573	information available in
0.2036630085	tens of thousands of
0.2036337228	constituted by
0.2036335543	a major challenge
0.2036064042	optimal design of
0.2036034908	on n vertices
0.2035848931	to protect
0.2035180019	independent and identically
0.2034925660	3d volume
0.2034524816	model combines
0.2034449261	each hop
0.2034200253	working together
0.2033955424	a detailed study
0.2033728342	the vocal tract
0.2033714541	reconstruction using
0.2033280302	sufficient and necessary
0.2033237231	clear understanding of
0.2033170808	second and third
0.2032737745	destined to
0.2032447264	paper argues
0.2032334979	function neural network
0.2032275887	a model based
0.2031989580	class problem
0.2031985349	discrepancies between
0.2031711140	this paper addresses
0.2031705571	computer interface
0.2031557635	a simulation model
0.2031549258	loop stability
0.2031393200	very high accuracy
0.2031272553	multiple sensor
0.2030771463	time and effort
0.2030650149	results prove
0.2030579312	method to calculate
0.2030130082	dramatic increase in
0.2029766583	3d integrated
0.2029672315	a semi automated
0.2029447119	a text based
0.2029346704	robust object
0.2029331449	0 2
0.2029233451	at different times
0.2028824795	3d range
0.2028816907	each round
0.2027792104	users social
0.2027746939	larger and more
0.2027607884	framework for designing
0.2026814389	level semantic
0.2026790335	successful results
0.2026772169	a quantitative measure
0.2026585545	a single layer
0.2026436695	the proposed
0.2026431851	built on top of
0.2026100803	lower bounds for
0.2026067144	set of genes
0.2026023851	provide explicit
0.2025909536	for solving large scale
0.2025531745	a riemannian
0.2025064187	application systems
0.2024866405	tools to support
0.2024849300	method to estimate
0.2024745658	the brazilian
0.2024735030	group work
0.2024722021	the different components
0.2024113523	aim to improve
0.2024094363	in order to solve
0.2023890170	np hard in
0.2023633150	to minimize
0.2023226736	based controllers
0.2023177183	a web service
0.2023092904	a source to
0.2022482032	the euclidean plane
0.2022387521	done manually
0.2022257528	extracted from
0.2022151428	independent approach
0.2022062671	minimum mean squared
0.2021917263	underlying model
0.2021829173	each relay
0.2021017092	based on local
0.2020457311	algorithms achieve
0.2020431012	this letter
0.2019707030	a high level
0.2019703342	hybrid system
0.2019513287	the optimal power allocation
0.2019413465	based annotation
0.2019195416	method to generate
0.2018959073	additional computational
0.2018784048	information exchange between
0.2018597146	ser b
0.2018405875	limited number of
0.2017695260	based fault
0.2017629392	experiment 2
0.2017515664	an approximation ratio
0.2017369475	an easy task
0.2017230361	s i
0.2016971396	selection algorithm based on
0.2016514875	same class
0.2016158387	based on particle swarm optimization
0.2016112271	all ip
0.2015856942	system of equations
0.2015815795	x i
0.2015794610	specific software
0.2015717500	hard to find
0.2015703578	thorough analysis
0.2015384515	scale up
0.2015150368	model to predict
0.2015099695	approach of using
0.2014920645	l system
0.2014903606	related to
0.2014871825	powerful enough
0.2014750477	this article discusses
0.2014473015	a great challenge
0.2014448401	algorithm considers
0.2014326262	users to create
0.2014083366	a new adaptive
0.2014081498	analysis of
0.2013875369	performed to evaluate
0.2013747657	adherence to
0.2012896778	realistic case
0.2012415132	main feature
0.2012248988	adaptive model
0.2012239248	few works
0.2012232456	satisfaction problem
0.2012107606	problem requires
0.2011940316	address issues
0.2011897553	simple control
0.2011799780	flexible architecture
0.2011526748	an intelligent
0.2011526319	general design
0.2011521057	early phases
0.2011369370	open research
0.2011131859	information available on
0.2010923622	so as to maximize
0.2010579069	error estimates for
0.2010462094	to fabricate
0.2009908071	an alternative approach
0.2009830743	performance improves
0.2009722021	a different set
0.2009649437	a simulation based
0.2009545518	current version
0.2009544813	time cost
0.2009416227	a massively parallel
0.2009327365	relatively simple
0.2009325247	based wireless sensor networks
0.2008979490	validation data
0.2008930540	relatively low
0.2008901628	wide variety of applications
0.2008877496	image experimental results
0.2008795670	set of nodes
0.2008713835	two main contributions
0.2008631005	bounded time
0.2008596759	compared with
0.2008506704	d 3
0.2008467686	under different conditions
0.2008443292	to discover
0.2008401899	tool to support
0.2008220973	joint routing
0.2008067073	a real world application
0.2008026372	this paper also presents
0.2008012304	networks under
0.2007860484	responsible for
0.2007645946	a decision tree
0.2007541816	of such problems
0.2007419047	bijection between
0.2007405067	authors proposed
0.2006284760	the product of
0.2006020836	approach generates
0.2005852450	query time
0.2005818058	1 1
0.2005765305	visual exploration of
0.2005683886	the pdf
0.2005224178	database demonstrate
0.2004965479	for mobile ad hoc
0.2004706077	emerged as
0.2004674389	proposed earlier
0.2004522577	a test bed
0.2004512950	user wants to
0.2004473276	the first phase
0.2004196991	a coarse grained
0.2003899076	standard software
0.2003880431	widely available
0.2003792749	small portion
0.2003686379	an illustrative example
0.2003642011	an efficient algorithm
0.2003588984	the complex plane
0.2003346242	leading to
0.2003094455	paper demonstrates
0.2002993209	many objective
0.2002970305	difference between
0.2002516604	an active learning
0.2002344260	to cater
0.2002184428	potentially useful
0.2002030391	a general methodology
0.2001594386	effective tools
0.2001366042	inequality problems
0.2001121851	numerical example
0.2001075612	a memetic algorithm
0.2000630296	automated detection of
0.2000618900	an end to end
0.2000423429	give rise to
0.2000359053	supplemented by
0.1999722021	for such problems
0.1999535746	approach to
0.1999373757	led to
0.1999201423	adaptive algorithm for
0.1998604194	a vis
0.1998585749	computer experiments
0.1998393824	ability to deal
0.1997518654	an algorithm based
0.1997379111	factor correction
0.1997291418	a mobile ad hoc network
0.1997001760	focus on
0.1996766479	a novel fuzzy
0.1996243641	based evaluation
0.1996209331	distributed iid
0.1996040987	data recorded
0.1995958317	more complicated
0.1995271974	between two images
0.1995271369	the art algorithms
0.1995081366	this paper puts forward
0.1995077844	study focuses
0.1994828812	overall accuracy
0.1994816443	a large extent
0.1994731567	a serious threat
0.1994683798	under sampling
0.1994638526	model based approach for
0.1994509666	proposed approach achieves
0.1994020356	paper concludes with
0.1993642992	an on line
0.1993536491	simpler and more
0.1993487253	an in depth
0.1993402577	based speech
0.1993379690	non target
0.1993256190	early diagnosis of
0.1993251569	time course
0.1993041591	in multi agent systems
0.1992949015	integrated system
0.1992339901	a branch and bound algorithm
0.1992027216	final results
0.1991359140	does not exist
0.1990967072	facts about
0.1990662452	a brief discussion
0.1990279102	based on mutual information
0.1990273936	broad range
0.1990185477	scheduling problems with
0.1989741289	man in
0.1989708344	three fold
0.1989595141	too small
0.1989504903	analysis of microarray
0.1989488756	signal to interference plus
0.1989400387	real world case
0.1989395799	a large dataset
0.1989203031	education system
0.1989056912	a low cost
0.1988405589	innovative approach
0.1988157839	the high performance of
0.1987968636	shown to achieve
0.1987905553	a directed graph
0.1987807868	automaton model
0.1987633103	a model driven
0.1987432170	wide variety
0.1987251366	design implementation and evaluation
0.1986797875	acts as
0.1986724327	the finite element method
0.1986623193	significant reduction in
0.1986516564	to solve
0.1986413405	much smaller than
0.1985856942	in such environments
0.1985748626	thousands of
0.1985561822	model to model
0.1985299113	asymptotic stability of
0.1985235425	this paper explores
0.1985172482	the paper
0.1984959023	not well understood
0.1984934244	almost identical
0.1984545161	high computation
0.1984521475	in real time in
0.1984483926	in such applications
0.1984323016	in addition
0.1984284673	performance cost
0.1984138869	environment including
0.1984053005	look at
0.1983818112	each particle
0.1983677751	two views
0.1983479180	the maximum likelihood ml
0.1983126266	streaming over
0.1982778688	the proposed detector
0.1982601407	global navigation
0.1982494253	a bayesian approach
0.1982450295	images acquired by
0.1982440378	resolution imaging
0.1982425360	links between
0.1982221287	published methods
0.1982217416	public data
0.1982006727	recent developments in
0.1981656952	differentiate between
0.1981588215	problems arising in
0.1981527315	based e learning
0.1980932435	reasoning system
0.1980913661	type method
0.1980777374	a convex optimization
0.1980418190	important components
0.1979782042	number of distinct
0.1979483818	uncertainty about
0.1979258674	number of users
0.1979244038	function defined
0.1978952580	shown to perform
0.1978772713	the kullback leibler divergence
0.1978249019	a better solution
0.1978232066	works well
0.1977957572	a fixed point
0.1977847436	to ensure
0.1977379263	the main idea
0.1977326149	cover types
0.1977028342	point spread
0.1976871263	experimental test
0.1976605423	similarities and differences between
0.1976588460	benefiting from
0.1976418920	large amounts
0.1976369867	treated as
0.1976310431	product of two
0.1976192609	the necessary information
0.1976151074	average recognition
0.1975892190	experiments illustrate
0.1975881032	perceived ease
0.1975652132	real case study
0.1975489787	research proposes
0.1975235425	this paper examines
0.1974570772	algorithm for mining
0.1974469404	gain insight into
0.1973775276	if f
0.1973671787	a good starting point
0.1973631991	level optimization
0.1973251695	a pragmatic
0.1972134419	much faster than
0.1971945852	matrix adaptation
0.1971015368	discovery rate
0.1970860918	significant speed
0.1970817078	set of pareto
0.1970775459	study describes
0.1970455398	lower bound for
0.1970075082	parallel computer
0.1969911805	using machine learning
0.1969804148	critical factor
0.1969425402	discrimination between
0.1969418838	electrical properties of
0.1969291773	deviate from
0.1968685182	directly related to
0.1968249723	model performs
0.1968228738	unsupervised approach
0.1968023700	taken together
0.1967989665	a low voltage
0.1967907973	the automotive domain
0.1967747087	in ubiquitous computing environments
0.1967603632	systematic method
0.1967585714	hybrid algorithm for
0.1967033827	several orders of magnitude
0.1966584881	prototype system
0.1966526145	data transport
0.1965886070	challenges involved
0.1965612239	class of models
0.1965437518	critical design
0.1965226977	broad spectrum
0.1964856189	the path of
0.1964793967	proof system
0.1964353072	results proved
0.1963766360	based on support vector machine
0.1963344744	a hybrid
0.1963251593	the expectation maximization em algorithm
0.1962809771	a highly accurate
0.1962805770	less conservative than
0.1962794257	in order to ensure
0.1962314466	learning approach to
0.1962264150	proposed to address
0.1962211399	of amino acids
0.1962188142	in real time with
0.1962072658	presented to verify
0.1961699560	making process
0.1961687276	examine whether
0.1961154542	does not
0.1960865541	generated by
0.1960449693	priori information
0.1960055685	analyzing data
0.1960011221	solving systems
0.1959978291	proposed protocols
0.1959958635	previously described
0.1959847932	automatically extracted from
0.1959406597	using k means
0.1959081971	basic principle
0.1958935241	rich data
0.1958870359	significant increase
0.1958861948	loop pll
0.1958414523	provide higher
0.1958413295	evidence shows
0.1958241783	cross layer design for
0.1957988249	generator based
0.1957962123	proposed approach outperforms
0.1957546882	an ecosystem
0.1957354360	this problem
0.1957268705	a service provider
0.1956969091	corrupted by
0.1956639326	process including
0.1956359140	more than 50
0.1956018116	known in advance
0.1955727549	top down approach
0.1954864085	large software
0.1954740079	access memory
0.1954553753	without causing
0.1954126885	a simple method
0.1954022622	a contingency
0.1953967927	a bipartite graph
0.1953942057	n f
0.1953586502	each participant
0.1952950800	capitalize on
0.1952634887	determined by
0.1952541816	of such devices
0.1952527145	correlations among
0.1952246799	based middleware
0.1952213656	time sensitive
0.1951937810	to understand
0.1951808178	critical problems
0.1951643332	paper attempts
0.1951540536	zoom in
0.1951455175	separation between
0.1951452210	a lot of attention
0.1951424578	problem of deciding
0.1951251317	extend existing
0.1951150172	a human operator
0.1951008171	best position
0.1950550898	this article
0.1950437449	to assess
0.1950379255	computer interaction
0.1950261175	approach extends
0.1950222483	an elegant
0.1949979853	the work presented
0.1949959780	the main idea behind
0.1949874522	induced by
0.1949756149	directly applicable to
0.1949331750	popular approaches
0.1949260959	high memory
0.1948775099	information from multiple
0.1948675561	smallest number of
0.1948250129	model improves
0.1948242767	parametric method
0.1948036761	degree n
0.1948036445	best linear
0.1947981621	multiplied by
0.1947965506	paper includes
0.1947954759	research aims
0.1947691749	while avoiding
0.1947506917	offered by
0.1946953660	proposed filter
0.1946907124	the paper also describes
0.1946742337	set of edges
0.1946487162	prior work
0.1946251140	small amounts of
0.1946000970	hindered by
0.1945934669	optimization pso algorithm
0.1945731782	multiplexing mimo
0.1945715882	the cr
0.1945541388	last two decades
0.1945453056	the relative contribution
0.1945363300	based congestion
0.1945099089	to detect
0.1944389179	a second order
0.1944351903	v 2
0.1943178208	freely available at
0.1942938115	nature of wireless
0.1942881470	distributed algorithms for
0.1942422179	necessary condition
0.1942366521	a real case
0.1942211593	increasingly large
0.1942089188	improve efficiency
0.1942064236	application running on
0.1941995642	motivation behind
0.1941806259	the unified modeling
0.1941337336	the second phase
0.1941070126	very little
0.1940906570	important area
0.1940851470	key aspects of
0.1940379971	so as to minimize
0.1940375582	method compares
0.1940169450	based shape
0.1940131715	described herein
0.1938116631	approaches including
0.1937610483	previously known results
0.1937431028	complete set
0.1937163351	most likely
0.1937005934	to accomplish
0.1937003416	a real world case
0.1936363847	b 1
0.1936090289	of such techniques
0.1935906778	comparison among
0.1935829355	web based tool for
0.1935764371	to reproduce
0.1935504625	0 t
0.1935239002	points in time
0.1935204819	great amount of
0.1934947751	engineering mde
0.1934863200	more than 70
0.1934850059	based on semantic
0.1934541264	an overlay network
0.1934531108	consist of
0.1934452741	framework to model
0.1933848359	data acquired by
0.1933808488	built around
0.1933565142	based document
0.1933048907	statistical modeling of
0.1933046920	relatively few
0.1932992724	traditional data
0.1932751335	two layered
0.1932237901	each class
0.1932021475	on and off
0.1931857929	the ber
0.1931371729	visualization system
0.1931272261	as soon as
0.1930996684	method considers
0.1930911444	transmitted over
0.1930415306	information including
0.1929882996	denoted as
0.1929837533	problem tsp
0.1929360037	resources required
0.1929255264	the information of
0.1929239804	apart from
0.1929090202	speech tagging
0.1928736705	a secure
0.1928701809	question of whether
0.1928165794	auditory system
0.1928071834	set function
0.1927981091	make sure
0.1927531468	to interference ratio
0.1927183120	x 2
0.1927010624	existing ones
0.1926952574	reduce energy
0.1926351444	reconstruction from
0.1926247971	qualitative results
0.1926207700	data produced
0.1925499222	applied to estimate
0.1925460646	a voter
0.1925281039	bci system
0.1925262210	a performance model
0.1924732170	existing state of
0.1924524828	based on genetic algorithm
0.1924395715	last few decades
0.1923955305	recent result
0.1923858909	the ear
0.1923857905	several hundred
0.1923545589	leads to significant
0.1923477640	proportional to
0.1922892270	experimental results also show
0.1922576499	time to digital
0.1921831620	results returned
0.1921805073	significantly better than
0.1921570050	an epistemic
0.1921427463	derived from
0.1921101663	efficient protocol
0.1921083714	particularly true
0.1921011956	very close
0.1920795853	near real
0.1920641145	linear time algorithm
0.1920608077	dimension d
0.1920494911	a mobile robot
0.1920199815	the outage probability
0.1920156389	applied to detect
0.1920118749	practical point of view
0.1920079177	problems in computer
0.1919885202	the source node
0.1919832973	technique for solving
0.1919724637	the synchronization of
0.1919449228	based kernel
0.1919401711	configuration changes
0.1919336350	an agent
0.1919330715	a randomized algorithm
0.1919233926	and other applications
0.1919148473	group of users
0.1919073365	like robots
0.1918924597	research related
0.1918910156	management based
0.1918881836	relation between
0.1918560487	without resorting to
0.1918394120	at least k
0.1918334436	other players
0.1918174224	s 2
0.1917917912	number of states
0.1917586675	high peak to
0.1917200187	dimensional discrete
0.1917084705	a scalable
0.1916809135	this new model
0.1916762112	in order to determine
0.1916341705	much stronger
0.1916182574	current implementation
0.1915906437	a stereo camera
0.1915592215	layer framework
0.1915399524	number of edges
0.1914946446	a client server
0.1914858904	proposed to model
0.1914467107	finite element model of
0.1914466484	to overcome
0.1914438986	imposed by
0.1914144070	algorithm for clustering
0.1914070393	building upon
0.1913999813	unified approach
0.1913930455	time diversity
0.1913919617	an intuitive
0.1913542025	confidence intervals for
0.1912957881	a wide frequency
0.1912824082	framework for understanding
0.1912758592	the proposed strategy
0.1912708066	a base station
0.1912649538	architecture to support
0.1912325601	based music
0.1912265991	tested against
0.1912230351	average signal
0.1911971228	important security
0.1911850840	three and four
0.1911481384	a non cooperative game
0.1911175736	two phases
0.1911164111	information extraction from
0.1910637831	at various levels
0.1910594001	linear combination of
0.1910174335	rise time
0.1909987987	a top down
0.1909985878	third part
0.1909522968	a theoretical framework
0.1909399137	applied to determine
0.1909042658	3d structures
0.1908704748	efficient methods
0.1907969394	an active
0.1907288814	keep track of
0.1907258210	set of candidate
0.1906639694	very weak
0.1906514094	the physical layer
0.1906467386	using data collected
0.1906449433	extraction based
0.1906395849	an acceptable level
0.1906235136	the australian
0.1905926561	results presented
0.1905692530	estimation of distribution
0.1905562498	distributed process
0.1905443207	the fly
0.1905208062	reasonably well
0.1904514300	to predict
0.1904263646	need to know
0.1904217069	conflicts between
0.1902959977	correlated data
0.1902722021	a novel and efficient
0.1902408266	icts in
0.1902050711	shown to improve
0.1901798889	based wireless
0.1901789750	based decision support system
0.1901651903	stronger than
0.1901120952	the e commerce
0.1900705683	good enough
0.1900341157	important problems
0.1899873515	method for reducing
0.1899620083	proposed for solving
0.1899558252	while satisfying
0.1899362236	the homotopy perturbation
0.1898846139	the proposed method yields
0.1898830201	paper reports
0.1898715818	an optimal policy
0.1898346522	the paper discusses
0.1898331277	representative set
0.1898261476	system capacity
0.1898210990	function parameters
0.1898018988	significant role
0.1897696921	a tree based
0.1897475540	easy way
0.1897101865	up to 30
0.1897015036	in order to assess
0.1896875204	experimental results on
0.1896252732	types of sensors
0.1895557504	the secrecy capacity
0.1895506704	e 3
0.1895445475	existing routing
0.1895341814	a tutorial
0.1895080541	core systems
0.1894997608	a valuable tool
0.1894985702	posed problem
0.1894929489	the key idea
0.1894344284	the loss in
0.1894268429	approaches require
0.1894097246	present day
0.1893891950	an enabler
0.1893526905	simple form
0.1893010767	a load balancing
0.1892898454	enable fast
0.1892895716	varying conditions
0.1892536675	most relevant
0.1892172318	dimensional linear
0.1892158395	time coding
0.1891711742	running example
0.1891690682	sufficient conditions for
0.1891536605	periods of time
0.1891059739	server system
0.1891004280	the visually impaired
0.1890678434	wide range of
0.1890555659	government research
0.1889462604	model to represent
0.1889442201	the basic idea
0.1889375153	the prism
0.1889226828	dynamic interactions
0.1888907415	based cache
0.1888487903	discuss issues
0.1888218992	one step
0.1888040796	a collision free
0.1887767370	overhead caused by
0.1887694617	time of day
0.1887370327	order features
0.1887009389	a fully automated
0.1886760331	perform better than
0.1886004492	new technologies
0.1885707362	an embodied
0.1885622805	purpose processor
0.1885560766	thereby improving
0.1885554962	by proposing
0.1885137530	to determine
0.1884899900	a critical issue
0.1884764038	in different applications
0.1884710803	algorithm performs well
0.1884601865	algebraic properties of
0.1884544584	written in c
0.1884527792	based framework for
0.1884255623	current models
0.1884231671	coordination between
0.1884124615	high node
0.1883760878	a high dimensional space
0.1883532897	results also indicate
0.1883510941	time frame
0.1883303842	applied to analyze
0.1883247291	important in many
0.1883142129	initial study
0.1883074463	to authenticate
0.1882893516	qualitative analysis of
0.1882428587	interference among
0.1882423776	to realize
0.1882423622	system of linear
0.1882330868	order nonlinear
0.1882326273	business needs
0.1882284611	the negative effect
0.1882094910	number of sensors
0.1882088258	1 dimensional
0.1881978127	collaboration between
0.1881863255	easily adapted to
0.1881850353	structured approach
0.1881657389	5 10
0.1881624037	the bit error rate ber
0.1881565195	a programming model
0.1881423452	the proposed method improves
0.1880882505	graph on n
0.1880864964	approach towards
0.1880773033	sar system
0.1880723937	based estimators
0.1879748285	n variables
0.1879330325	two sample
0.1879290935	an unmanned
0.1879275122	automated approach
0.1879257444	a key issue
0.1879212941	the current frame
0.1879135293	impact on
0.1878911860	stability analysis of
0.1878735740	shared among
0.1878492195	significant effect on
0.1878424543	still remain
0.1878256515	approach for determining
0.1878061624	proposed strategies
0.1877544382	results produced
0.1877430043	integrated into
0.1877114866	each item
0.1876694756	et al proposed
0.1876521635	point of failure
0.1876321287	best match
0.1876284760	the approach with
0.1876001811	model of human
0.1875992073	the supply chain
0.1875632586	the norm of
0.1875291449	a polynomial time algorithm
0.1875168286	a query language
0.1875134409	language xml
0.1874777795	the french
0.1874457922	positive rates
0.1874421850	way relaying
0.1874184564	designed to handle
0.1873874967	a crucial factor
0.1873234593	analysis and simulation results show
0.1873117112	a light weight
0.1873030398	an obstacle
0.1872980028	a general theory
0.1872935752	based mapping
0.1872618127	this short paper
0.1872342493	this position paper
0.1872242948	accurate prediction of
0.1872212686	an explicit formula
0.1871958312	making use of
0.1871666186	accuracy of classification
0.1871476957	oriented data
0.1871079968	necessary and sufficient condition
0.1870598725	improve classification
0.1870555094	contributes to
0.1870494093	this talk
0.1869975611	to automate
0.1869638832	a review
0.1869601279	set of attributes
0.1869255264	the recognition of
0.1869094598	a novel architecture
0.1868846850	do not
0.1868610791	a novel image
0.1868434099	analysis lda
0.1867945804	the h index
0.1867934903	an edge
0.1867802456	a self stabilizing
0.1867388219	copes with
0.1867200047	one and two
0.1866767815	major cause
0.1866747811	space and then
0.1866258747	a fuzzy rule based
0.1866177237	the frequency domain
0.1866164754	for robust speech recognition
0.1866134871	set of variables
0.1865668797	algorithm for wireless sensor
0.1865564759	to visualize
0.1865496253	5 years
0.1865354334	closed under
0.1864871066	related methods
0.1864595579	patients with
0.1864404414	early phases of
0.1864306161	in order to realize
0.1863809660	this method
0.1863107445	depend only on
0.1862940401	a hybrid method
0.1862825519	coping with
0.1862660370	a graph g
0.1862094349	information provided by
0.1862029441	the em
0.1861982497	detection algorithm based on
0.1861832640	the contrary
0.1861787514	successful application
0.1861145355	efficient means
0.1860992377	the aforementioned
0.1860407512	consists of
0.1860285749	the first step
0.1860189666	a two user
0.1860026837	developed to support
0.1859876523	state stability
0.1859594218	an alternative
0.1859411036	in such scenarios
0.1859255264	the space of
0.1859076289	adaptive search
0.1859002162	attached to
0.1858920247	a major concern
0.1858120221	learning repository
0.1858071100	significant differences between
0.1857896826	detection based on
0.1857797070	80216 standard
0.1857576097	the sr
0.1857439501	period of time
0.1857366579	easier than
0.1857314974	correlation among
0.1857120031	model for analyzing
0.1857107074	results obtained from
0.1857015672	order terms
0.1856962070	teleoperation system
0.1856667573	examples of such
0.1856550067	time constraint
0.1856524445	produced by
0.1856455756	a long period
0.1856098196	quantitative analysis of
0.1855859181	manipulators with
0.1855700209	each user
0.1855339290	visual representation of
0.1855307564	4 times
0.1855187274	preferences over
0.1855125962	an off line
0.1854969850	by introducing
0.1854745861	a fuzzy set
0.1854599791	routing algorithms for
0.1854553583	a semi supervised learning
0.1854066012	the last few years
0.1853990405	structure model
0.1853941893	a semantic
0.1853690111	significantly less
0.1853570262	m and n
0.1853292723	well characterized
0.1853092904	the mode of
0.1852439537	arrive at
0.1852345899	a bayesian network
0.1852338390	a mobile phone
0.1852186380	subject to
0.1852063006	an infinite
0.1851949411	currently available
0.1851720196	considerable interest
0.1851692322	larger class of
0.1851578534	distributed decision
0.1851132034	flexible enough
0.1850877198	less memory
0.1850776783	effective knowledge
0.1850718553	type of information
0.1850709974	based adaptation
0.1850407512	capable of
0.1850219433	approximated by
0.1849842363	multiple case
0.1849551687	evaluated against
0.1848702931	effects of
0.1848439209	two adjacent
0.1848373515	method for designing
0.1848234796	common feature
0.1848148152	uci data
0.1848088720	linear dimensionality
0.1847916325	cope with
0.1847877340	the half duplex
0.1847500207	in order to optimize
0.1847398774	capable of learning
0.1847358196	growing popularity of
0.1847263590	high processing
0.1846920518	framework for modeling
0.1846887825	complexity of software
0.1846766213	based matching
0.1846675362	information coming from
0.1846646395	any vertex
0.1846171989	both academia and industry
0.1846141282	mean error
0.1846001929	i 1
0.1845531619	in order to take advantage
0.1845476541	solving process
0.1844719292	environment simulation
0.1844522939	data obtained
0.1844410953	approach based on
0.1844191743	the relay node
0.1843939731	at run time
0.1842769418	set of parameters
0.1842666635	a closed loop
0.1842637272	three decades
0.1842627682	based channel
0.1842538345	the long term
0.1842324147	decisions made
0.1842188287	space of possible
0.1841682223	exponentially many
0.1841625898	important step
0.1841620816	the entire network
0.1841460736	the new algorithm
0.1841396408	the proposed method produces
0.1841219039	2 4
0.1841216264	log m
0.1841101134	combined together
0.1840950921	a data stream
0.1840661294	a test suite
0.1840436509	based approach for
0.1840396959	an algorithmic
0.1840286846	an effective tool
0.1840273277	excellent agreement with
0.1840013750	current search
0.1839850447	the paper analyzes
0.1839350983	to discern
0.1839255264	the order of
0.1838963332	the way of
0.1838666602	a bijection
0.1838653062	a constraint satisfaction problem
0.1838489443	sensor network wsn
0.1838408781	n type
0.1838279488	approach relies
0.1838241080	formed by
0.1837736482	improved particle
0.1837701005	to improve
0.1837690601	per bit
0.1837439117	to create
0.1837366697	interpreted as
0.1837114280	interference caused by
0.1837058639	proposed measure
0.1837018985	quite promising
0.1836831561	boundaries between
0.1836789984	a dht
0.1836434410	execution language
0.1836364823	two class
0.1836284760	the technology of
0.1836056619	to end latency
0.1836030187	decision making in
0.1835227081	body of work
0.1835225001	prediction using
0.1835174438	standard particle
0.1835113251	dynamics simulations
0.1835080541	based collaboration
0.1834958612	problem into two
0.1834941721	model for evaluating
0.1834844086	statistical properties of
0.1834799736	the environment in
0.1834624784	direct application
0.1834598651	basic algorithm
0.1834521475	the start of
0.1834449204	sub models
0.1834343440	value decomposition
0.1834223034	technique to reduce
0.1833467013	information provided
0.1833280571	framework for
0.1833033919	an iterative procedure
0.1832944516	variable step
0.1832942116	layer design
0.1832929246	first steps
0.1832840316	at design time
0.1832784052	in different environments
0.1832651067	this research proposes
0.1832587062	to infer
0.1832580403	common framework
0.1832544409	critical component
0.1832103593	this paper develops
0.1831938173	networks with time varying
0.1831850390	the most challenging
0.1831706845	a neural network model
0.1831585488	differences among
0.1831568133	a user friendly
0.1831493691	easily extended to
0.1831204054	the gp
0.1830984993	difficult to determine
0.1830695479	parallel implementation of
0.1830578038	important characteristic
0.1830569724	easily applied
0.1830553954	m log
0.1830487943	gaps between
0.1830196294	an oracle
0.1829840097	in order to detect
0.1829622618	users needs
0.1829265032	the dimension of
0.1829255264	the privacy of
0.1829255264	the motion of
0.1829182879	taking account
0.1829008402	probability distribution over
0.1828179516	very complicated
0.1828006716	peer communication
0.1827865832	an iterative algorithm
0.1827453532	propose two novel
0.1827391344	3d imaging
0.1827366697	accomplished by
0.1827240039	modeled as
0.1826934399	based overlay
0.1826666708	not taken
0.1826500207	in order to understand
0.1826281908	achieve maximum
0.1825807447	multiple network
0.1825665655	area of interest
0.1825516642	a general purpose
0.1825314476	direct impact
0.1825253782	based assessment
0.1825067253	very high dimensional
0.1824898286	required to support
0.1824866713	both time and
0.1824740879	based decision
0.1824717257	the job shop scheduling problem
0.1824706873	an automatic
0.1824627370	packet transform
0.1824590920	the original
0.1824521475	the histogram of
0.1824406683	accurate performance
0.1824355293	to minimise
0.1824161392	lower computational
0.1824117269	the entire
0.1823898862	before and after
0.1823464211	based identification
0.1823241502	number of faults
0.1823177608	based on weighted
0.1822958406	the indian
0.1822481752	do not know
0.1822208038	the real line
0.1822205615	easily integrated into
0.1822010813	attention in recent
0.1821815820	fed back to
0.1821668985	3d model
0.1821655154	based infrastructure
0.1821541149	noise channel
0.1821533079	key information
0.1821510705	four major
0.1821342904	a camera and
0.1821109369	complemented with
0.1820719883	three steps
0.1820683836	the propagation of
0.1820593076	to noise ratio
0.1820550219	an omnidirectional
0.1820442538	arbitrary number of
0.1820370535	information extracted
0.1820342700	series of experiments
0.1820174875	great variety of
0.1819799584	evidence from
0.1819797932	best approximation
0.1819702057	to track
0.1819528227	assigned to
0.1819271574	a field programmable gate array
0.1819255264	the learning of
0.1819255264	the optimization of
0.1818421245	rank one
0.1818263706	a social network
0.1818255976	last but not least
0.1818227565	based on genetic algorithms
0.1817912964	a hardware architecture
0.1817873668	based on hidden markov
0.1817756383	set of items
0.1817497058	the problem of finding
0.1817344199	service provided
0.1817313342	sliding mode control of
0.1817205137	database contains
0.1816812212	the www
0.1816795539	an anisotropic
0.1816791775	more specifically
0.1816284760	the change of
0.1816119876	effective algorithms
0.1814604684	accurate estimates of
0.1814183736	a generic
0.1814160114	a particle filter
0.1814135778	over multipath
0.1814133634	to better support
0.1814085488	relationship among
0.1813790583	approach to design
0.1813724266	overall throughput
0.1813569801	most recently
0.1813555904	this new method
0.1813355733	vast number
0.1813342853	much less
0.1813086476	methodology developed
0.1813031979	a new model
0.1812994181	the allocation of
0.1812698333	the watermarked image
0.1812650629	due to
0.1812638115	tree based on
0.1812555476	in rural areas
0.1812455177	information related
0.1812367476	strongly np
0.1812357966	dynamic behavior of
0.1811833370	quantitative approach
0.1811672821	algorithm for determining
0.1810824667	well recognized
0.1810747710	based on monte carlo
0.1810515396	the early phases
0.1810465819	incurred by
0.1810375338	step process
0.1810212537	present two new
0.1810194929	both synthetic and real data
0.1810187473	in order to accomplish
0.1810171245	an on demand
0.1809255264	the management of
0.1809255264	the information in
0.1809255264	the frequency of
0.1809167615	method offers
0.1809156046	in such cases
0.1809130814	engineering research
0.1808871321	peer network
0.1808450021	system integration
0.1808401334	based hardware
0.1808113620	software performance
0.1808019772	the paper also discusses
0.1807761320	early stages of
0.1807664506	a finite set
0.1807584005	time and location
0.1807558240	symbolic model
0.1807497425	efficient algorithm for
0.1807381277	able to handle
0.1807097081	at least
0.1807032897	faster and more
0.1806732655	two orders of magnitude
0.1806286264	an expanded
0.1806284760	the age of
0.1806274509	on one hand
0.1806229853	system of nonlinear
0.1805817407	a wide range
0.1805815917	ability to perform
0.1805678083	exemplified by
0.1805661036	for different applications
0.1805647800	design and construction of
0.1805481027	performed to demonstrate
0.1804661952	hardware implementation of
0.1804260872	coordination among
0.1804228140	the state space
0.1803920725	accurate estimate
0.1803856735	a critical step
0.1803850083	quantitative model
0.1803759571	in real time by
0.1803596350	a web server
0.1803489799	already exist
0.1802913159	algorithm for
0.1802842587	a decision maker
0.1802806670	by product of
0.1802770818	time reduction
0.1802720765	most influential
0.1802491382	two year
0.1802338880	provide guidelines
0.1802169554	much larger
0.1801870213	method for nonlinear
0.1801655787	the fractal dimension
0.1801578018	a power efficient
0.1801575759	higher recognition
0.1801437021	scale simulations
0.1800894939	the top down
0.1800664290	particularly challenging
0.1800644230	cause serious
0.1800490483	stemming from
0.1800437549	describe and evaluate
0.1800347368	to decide
0.1800271154	based policy
0.1800054187	much broader
0.1799821088	focussing on
0.1799444375	algorithm for scheduling
0.1799255264	the knowledge of
0.1799102871	the sdp
0.1798821810	in other words
0.1798734838	fits well
0.1798517753	with time varying delay
0.1798274113	an optimal algorithm
0.1797968803	computer program
0.1797875627	our findings suggest
0.1797727560	too large
0.1797547106	without imposing
0.1797470752	the desired signal
0.1797389648	the spatio temporal
0.1797252831	face data
0.1797006831	note on
0.1796992868	scheduling algorithm for
0.1796955754	data throughput
0.1796864935	simple case
0.1796696602	coding problem
0.1796628721	briefly describe
0.1796607700	results also show
0.1796134962	systematic analysis of
0.1795639897	an open
0.1795559140	scheme for wireless
0.1795351889	robot equipped with
0.1795307169	quality problems
0.1795117436	developed technique
0.1794990752	extended to support
0.1794424697	partial results
0.1794339709	ieee 80211 distributed
0.1794253170	a promising solution
0.1794147298	non existence
0.1794079110	problem arising in
0.1794049647	during training
0.1793921498	the ground truth
0.1793873410	using gabor
0.1793799757	application of fuzzy
0.1793635736	ability to identify
0.1793464587	the german
0.1793293079	addition of new
0.1793180335	lot of attention
0.1792636241	time consuming process
0.1792535800	to mitigate
0.1792512643	while ensuring
0.1792477349	an introduction
0.1792448010	word error
0.1791933836	the work of
0.1791915580	time aware
0.1791709829	the user
0.1791672095	passes through
0.1791460736	the new method
0.1791078422	the stego image
0.1790985752	novel representation
0.1790844072	the tip of
0.1790567667	in order to meet
0.1790468630	the japanese
0.1790382455	class of nonlinear
0.1790349999	nash equilibrium in
0.1790330031	parallel version of
0.1789809304	to tackle
0.1789741202	a special case
0.1789679844	deadline first
0.1789369931	significant influence
0.1789063650	corresponding points
0.1788354930	whole system
0.1787666095	interacted with
0.1787464599	too long
0.1787299983	dissimilarity between
0.1787233244	the fd
0.1787013311	isomorphic to
0.1786855718	class of algorithms
0.1786851942	3d laser
0.1786650921	a finite state machine
0.1786568607	proposed procedure
0.1786370195	large network
0.1786243416	a generalized
0.1786209523	lead to significant
0.1786198644	an ultrasonic
0.1785918759	a decision support
0.1785644649	less than 5
0.1785437005	the main reason
0.1785363652	followed by
0.1785099420	the equation of
0.1785099420	the vector of
0.1785025956	e 2
0.1784988003	learning applications
0.1784965343	mobile robots with
0.1784866713	within and between
0.1784815681	the nucleus
0.1784602168	divided into three
0.1784354684	likely to occur
0.1784275166	method for
0.1784264157	reconstruction based
0.1784234315	three dimensional structure
0.1783776207	practical results
0.1783698898	following question
0.1783293079	developed and used
0.1783239853	time and space complexity
0.1782721274	the medium access control mac layer
0.1782712708	the current study
0.1782468879	the same
0.1782229902	briefly described
0.1782164370	in order to eliminate
0.1782156765	image super
0.1781999462	the art techniques
0.1781836659	c 2
0.1781754945	to avoid
0.1781608023	a new hierarchical
0.1781576173	propose two new
0.1781440029	studies demonstrate
0.1781271639	an augmented reality
0.1780995273	a closed form expression for
0.1780741692	electronic data
0.1780516698	an optimal
0.1780055667	for delay sensitive
0.1779708108	balance between
0.1779287023	each subsystem
0.1779231035	extensive analysis
0.1779152357	a machine learning
0.1779040110	to identify
0.1778953679	computer programs
0.1778909966	fuzzy support
0.1778605834	the paper demonstrates
0.1778561124	the paper outlines
0.1778193375	the proposed design
0.1778138184	means algorithm
0.1778067667	in order to enhance
0.1778024269	at compile time
0.1777791802	questions regarding
0.1777300130	special emphasis on
0.1777150607	the maximum allowable
0.1776576173	important for many
0.1776545440	framework consists
0.1776527992	the calibration of
0.1776527992	the order in
0.1776527992	the registration of
0.1776453535	dependence between
0.1776432429	study addresses
0.1776432347	represented as
0.1776412624	number of candidate
0.1776039947	this paper also describes
0.1775991594	order to fully
0.1775397627	increasing demand for
0.1774574588	general structure
0.1774529247	responding to
0.1774280571	properties of
0.1773856745	domain signal
0.1773689117	to build
0.1773362449	a mixed integer programming
0.1773151982	each category
0.1773122499	benefit from
0.1772983624	employed to solve
0.1772903831	keeps track of
0.1772799125	driven by
0.1772445726	effective manner
0.1772130025	low power consumption and
0.1771976995	number of clients
0.1771961109	full power
0.1771668456	respond to
0.1770997765	natural extension
0.1770718663	vulnerable to
0.1770683836	the support of
0.1770658860	distinguishes between
0.1770653115	2 phase
0.1770528905	domain specific language for
0.1770524466	the proposed converter
0.1770454515	easy access to
0.1770235826	non linear optimization
0.1769844457	applications in computer
0.1769822714	this paper considers
0.1769372553	the proposed procedure
0.1769255264	the logic of
0.1769231540	the latter
0.1768897037	function defined on
0.1768666317	checking tools
0.1768630140	order markov
0.1768561417	formulated as
0.1768559397	in many real
0.1768534170	downloaded from
0.1768525486	the ar
0.1768348125	iterative algorithm for
0.1768177040	additional information about
0.1768105221	paper represents
0.1767964531	mimo system with
0.1767407675	an image sequence
0.1767004309	based estimation
0.1766643157	efficient method
0.1766527992	the graph of
0.1766527992	the test of
0.1766525591	nn algorithm
0.1766341732	obtained by
0.1766107855	study reports
0.1766085159	millions of
0.1765273187	required in order
0.1765247713	of consciousness
0.1765049665	an intersection
0.1765025469	an abstract model
0.1765007510	lossless compression of
0.1764897142	experiments on benchmark
0.1764821733	designed to address
0.1764669760	related work
0.1764296724	a new criterion
0.1764203969	traditional single
0.1764162850	linear discrete
0.1764059318	a high speed
0.1763864057	filter algorithm
0.1763849547	based resource
0.1763766210	convex combination of
0.1763532365	to uncover
0.1763489426	types of traffic
0.1763278418	models hmms
0.1763150498	modified algorithm
0.1762872471	the sd
0.1762774848	tree analysis
0.1762670206	trade offs in
0.1762559708	routing protocol for
0.1762397587	experiments conducted on
0.1761876906	an interdisciplinary
0.1761869619	referred to
0.1761341301	introduce two new
0.1761292589	range of applications
0.1760769223	a single
0.1760716972	too complex
0.1760684297	the network lifetime
0.1760683836	the domain of
0.1760683836	the content of
0.1760363512	2 2
0.1760169939	results indicated
0.1760106854	forecasting system
0.1760095025	a practical solution
0.1759931383	chip data
0.1759815747	activation during
0.1759649570	cooperation between
0.1759535581	experiments performed on
0.1759415570	can bus
0.1759370371	to calculate
0.1759353856	from multiple sources
0.1759345627	generated test
0.1759275052	able to predict
0.1759255264	the processing of
0.1759255264	the modeling of
0.1759142457	much longer
0.1758998908	scale distributed
0.1758935429	interesting information
0.1758895558	to deploy
0.1758831751	technique to improve
0.1758817140	diverse data
0.1758438321	management methods
0.1758057763	specific set
0.1757986958	art algorithm
0.1757845454	comparison of two
0.1757790421	a lagrangian
0.1757567047	flow algorithm
0.1756878213	a team
0.1756850408	stochastic network
0.1756637158	complexity simulation results
0.1756614417	experience qoe
0.1756527992	the testing of
0.1756527992	the delay of
0.1755841073	the exact solution
0.1755812346	method to detect
0.1755659768	research process
0.1755318766	unlike most
0.1755051457	more than 80
0.1755047835	about 90
0.1754931128	large collections of
0.1754729962	fusion system
0.1754627473	art algorithms
0.1754364964	optimal result
0.1753856394	to optimize
0.1753765076	parameter k
0.1753512423	n times
0.1753504287	according to
0.1753499810	an event
0.1753463953	provide means
0.1753245054	the pd
0.1753197359	4 4
0.1752846560	number of labels
0.1752812891	system administrators
0.1752712117	significant effect
0.1752404431	among others
0.1752272434	to achieve
0.1752229967	the new model
0.1752083485	with dementia
0.1751946826	resulted from
0.1751814566	to learn
0.1751611438	4 way
0.1751398963	of multi agent systems
0.1751349420	the color of
0.1751345397	four case studies
0.1751080249	significant challenge
0.1751032895	connection between
0.1750952430	the flame
0.1750850915	types of information
0.1750691628	the inverted pendulum
0.1750683836	the resolution of
0.1750659877	problem structure
0.1750623616	ready to
0.1750314908	different from traditional
0.1750218375	to resolve
0.1750109984	a performance evaluation
0.1749791629	specific languages
0.1749655667	benefited from
0.1749525370	successful implementation of
0.1749411811	serious challenges
0.1749367779	a hand held
0.1749255264	the activity of
0.1749073820	second contribution
0.1748719514	benefits of such
0.1748676915	large extent
0.1748464422	a novel distributed
0.1748260373	prior information about
0.1747793831	much higher
0.1747669129	number of classes
0.1747610538	diagnosis using
0.1747517939	n approximation
0.1746847432	a single point
0.1746670448	critical data
0.1746649296	to reconstruct
0.1746405042	systems offer
0.1746287689	the web
0.1746279023	a revised
0.1745963104	become popular
0.1745845295	comparisons between
0.1745642506	designed to achieve
0.1745594361	experiments indicate
0.1745435882	the best previously known
0.1745421076	facilitated by
0.1745295354	an incentive
0.1745173649	the practice of
0.1745099420	the delay in
0.1745062837	a newly developed
0.1745051549	queries over
0.1744701892	originated from
0.1744587516	the protocol in
0.1744564524	to install
0.1744535354	an objective function
0.1744527703	model evaluation
0.1744487909	act as
0.1744124048	far away from
0.1743847205	framework to analyze
0.1743719533	based concept
0.1743704794	a hybrid system
0.1743585865	a novel hierarchical
0.1743398914	binary phase
0.1743391680	received considerable attention in
0.1743349420	the service of
0.1743349420	the interference to
0.1743137815	presented here
0.1743049998	an online
0.1742927761	a difficult task
0.1742799406	this poster
0.1742697608	a time of
0.1742661257	able to distinguish
0.1742572673	sub problem
0.1742363184	scale networks
0.1742296596	information gathered from
0.1742272434	to reduce
0.1741817165	automated method
0.1741683942	in mobile environments
0.1741484309	more convenient
0.1741408781	2 approximation
0.1741041968	an ever increasing
0.1740868924	real data set
0.1740720639	multiple frequency
0.1740683836	the discovery of
0.1740683836	the architecture of
0.1739887185	higher number
0.1739783666	issues concerning
0.1739767379	this research explores
0.1739686690	small training
0.1739572725	the dimensionality of
0.1739416337	a finite field
0.1739388927	of multi core processors
0.1739255264	the density of
0.1739127947	to simulate
0.1739097931	over data streams
0.1738938467	issues involved in
0.1738873411	approach to model
0.1738857596	effectively applied
0.1738741849	paper analyzes
0.1738369842	estimation method based on
0.1738037370	linear relationship between
0.1737993779	know about
0.1737880082	significantly affected by
0.1737777992	of g such
0.1737698942	approximation scheme for
0.1737553664	fixed k
0.1737442023	the service provider
0.1737193537	3d interaction
0.1736674678	2 v
0.1736615891	cloud data
0.1736527992	the noise in
0.1736370376	learned about
0.1736352762	requires less
0.1736215750	a knowledge management
0.1736061081	to manage
0.1735857357	the exponent of
0.1735279599	general methodology
0.1735244117	exchanged between
0.1735081042	a b
0.1734941169	main applications
0.1734692659	especially true
0.1734620180	results obtained by
0.1734589792	to acquire
0.1734580899	a class of nonlinear
0.1734521475	a change of
0.1734397062	dependency between
0.1734300674	effective techniques
0.1734226526	an indirect
0.1733506192	converted to
0.1733425789	to support
0.1732508414	urgent need
0.1732380075	a spatio temporal
0.1732314060	scheme for mobile
0.1732107589	the long run
0.1731521474	synchronization between
0.1731328165	amount of training data
0.1731179246	an affective
0.1731121644	perceptions of
0.1731043881	algorithm ea
0.1730940364	a novel fast
0.1730933070	switch between
0.1730683836	the addition of
0.1730683836	and management of
0.1730683836	the increase of
0.1730683836	the speed of
0.1730683836	the topology of
0.1730435486	feedback equalizer
0.1730165253	very powerful
0.1730085679	a framework
0.1729818633	composed of
0.1729701501	extraction method based on
0.1729677879	estimation of parameters
0.1729524034	a polynomial time approximation scheme
0.1729486789	to diagnose
0.1729049613	classification based on
0.1728988621	drawn from
0.1728358016	pre distribution
0.1728351943	look like
0.1728350824	an unknown environment
0.1728177094	classical results
0.1727866713	first and second
0.1727500207	in order to extract
0.1727437817	the developed algorithm
0.1727269613	algorithm runs in
0.1727243102	process parameter
0.1727199254	one relay
0.1727088758	dataset containing
0.1726871455	two fold first
0.1726799681	approach for detecting
0.1726637800	to handle
0.1726527992	the annotation of
0.1726094068	four basic
0.1725962097	to maximise
0.1725520600	exponential growth of
0.1725438616	time difference
0.1725367470	performs much better
0.1725201005	this study
0.1724991986	compared with other existing
0.1724626734	a crucial step
0.1724616431	varying delay
0.1724587516	the graph in
0.1724413740	a useful technique
0.1724230863	a grid based
0.1723993566	dynamic web
0.1723418307	line model
0.1723362989	d n
0.1723303297	coupled system
0.1723210338	very slow
0.1723155868	the earthquake
0.1723032916	a particle swarm optimization pso
0.1722585950	divided into two
0.1722409164	within class
0.1722306069	path planning for
0.1722275749	the network
0.1722228825	general problem
0.1722140842	comparison to other
0.1722037329	efficient processing of
0.1722036660	an attractive solution
0.1721985891	particular emphasis
0.1721755039	approach to support
0.1721535890	available memory
0.1721466680	a novel multi
0.1721342346	the false positive rate
0.1721332532	to suppress
0.1721301278	80216 networks
0.1721014596	a collaborative environment
0.1720698662	translates into
0.1720683836	the expression of
0.1720683836	the extraction of
0.1720683836	the condition of
0.1720683836	the variance of
0.1720526176	different classifiers
0.1720486725	activity during
0.1720122132	preliminary results show
0.1720073046	a decentralised
0.1719835031	better quality
0.1719797588	located at
0.1719572725	the precision of
0.1719480687	two vertices
0.1719432191	rooted at
0.1719297397	available spectrum
0.1719255264	the language of
0.1719255264	the scale of
0.1719255264	the connectivity of
0.1719206563	the time for
0.1719094799	worst case time
0.1718241223	very important
0.1718138880	a new clustering
0.1717941257	likelihood method
0.1717787093	generic approach
0.1717562654	a new lower bound
0.1717486621	much needed
0.1717275699	fault diagnosis of
0.1717270661	for facial expression recognition
0.1717164267	state complexity of
0.1717050673	nash equilibria in
0.1716921782	a comprehensive study
0.1716527992	the tracking of
0.1716527992	the community of
0.1716517794	current information
0.1716356371	in wireless ad hoc
0.1716233063	the ace
0.1716056889	retrieval applications
0.1716044821	central processing
0.1715963104	problem posed
0.1715894830	this research investigates
0.1715580732	achieved by
0.1715335297	approach builds
0.1715068949	used to train
0.1714691509	all vertices
0.1714686023	to elicit
0.1714587516	the service time
0.1714540228	problem of detecting
0.1714369793	while minimizing
0.1714056275	across multiple
0.1713720606	security against
0.1713605479	results on several
0.1713490139	numerical experiments show
0.1713486043	able to deliver
0.1713215868	local means
0.1713115925	a thesaurus
0.1712907195	the proposed approach achieves
0.1712845896	network computing
0.1712579718	attracted much
0.1712569047	3 t
0.1712541628	investigated whether
0.1712382194	up to 20
0.1712290295	modelled using
0.1712189728	to meet
0.1711878845	ability to model
0.1711741232	similar traffic
0.1711737500	3d virtual
0.1711617038	some new results
0.1711433171	able to adapt
0.1711431213	simpler than
0.1711331892	the hippocampus
0.1711128648	significantly better performance
0.1711043158	an important challenge
0.1710869700	the current internet
0.1710683836	the fusion of
0.1710683836	the retrieval of
0.1710593649	this model
0.1710418169	large image
0.1710318994	a single server
0.1710134847	the most promising
0.1709730589	synthesis system
0.1709578006	to enhance
0.1709308034	problem faced by
0.1709255264	the response of
0.1709255264	the category of
0.1708678014	a unified manner
0.1708543871	the brute force
0.1708524857	recent work
0.1708397719	3d points
0.1708239844	resolution data
0.1708105207	ways to improve
0.1707940192	with probability 1
0.1707686681	two and three
0.1707645306	triggered by
0.1707290962	based monitoring
0.1706876741	technique for improving
0.1706789809	a portable
0.1706639943	a collaborative
0.1706527992	the load of
0.1706527992	the phase of
0.1706381878	a finite alphabet
0.1706321609	an integrated
0.1706176506	consuming task
0.1705736209	non real time
0.1705493146	volume method
0.1705475442	to extract
0.1704876100	agreement between
0.1704780778	a real world
0.1704587516	the mining of
0.1704275994	size n
0.1704234452	employed to determine
0.1704198066	original design
0.1704146121	model to analyze
0.1704012927	non existence of
0.1704007314	new estimator
0.1703521220	funded by
0.1703468447	over sampling
0.1703213343	important topic
0.1703168527	lessons from
0.1703074233	the most important
0.1702815962	resulted in
0.1702788095	denial of
0.1702723917	the curse of dimensionality
0.1702640859	a reconfigurable
0.1702436921	hard to achieve
0.1702342296	proposed to achieve
0.1702331224	with time delay
0.1701927573	a significant decrease
0.1701755972	a software framework
0.1701659559	determinants of
0.1701550550	in mobile ad hoc
0.1701405130	based algorithm for
0.1701180212	simple implementation
0.1701154398	performance of wireless
0.1701097564	rd performance
0.1700874172	and other related
0.1700794043	mismatches between
0.1700683836	the technique of
0.1700683836	the flow of
0.1700683836	the mechanism of
0.1700680183	whether or not
0.1700641727	weighted combination of
0.1700345282	method to compute
0.1700299316	a key role
0.1700273744	study considers
0.1699910223	a similar result
0.1699630053	n x
0.1699572725	the operation of
0.1699572725	the diversity of
0.1699404958	a mixed integer linear programming
0.1699255264	the alignment of
0.1698940872	a sensor network
0.1698782705	already known
0.1698686628	to average power ratio
0.1698637203	set of
0.1698599875	number of customers
0.1698564730	a quantitative analysis
0.1698426414	new metrics
0.1698267004	competition between
0.1698017619	a planar graph
0.1697758298	a hierarchical
0.1697244979	inferred from
0.1697043938	2 nd
0.1696691690	stabilizing algorithm
0.1696529269	this paper analyzes
0.1696527992	the body of
0.1696527992	the aggregation of
0.1696301269	motor system
0.1695767492	the training set
0.1695687833	build models
0.1695616821	animation system
0.1695566981	a straight line
0.1695540030	one dimension
0.1695500641	specifically designed for
0.1695402634	based speaker
0.1695284129	connected via
0.1695032231	no extra
0.1695016816	number of targets
0.1694664394	closed form solution for
0.1694202990	similar systems
0.1694136380	new algorithms
0.1693991053	this study presents
0.1693924231	an exact
0.1693660330	version of
0.1693507398	one hundred
0.1693085662	applications ranging from
0.1692819430	accuracy obtained
0.1692733608	model simulation results
0.1692684185	traditional approach
0.1692414094	a two phase
0.1692251296	the way in
0.1692111482	reported here
0.1691576441	the digital divide
0.1691478700	an evidence
0.1691342165	science data
0.1691190181	stochastic approach
0.1691031876	a practical
0.1690894530	challenges including
0.1690683836	the coverage of
0.1690683836	the failure of
0.1690683836	the configuration of
0.1690683836	the experience of
0.1690683836	the approximation of
0.1690683836	the spectrum of
0.1690683836	the integrity of
0.1690683836	the mapping of
0.1690635135	the new system
0.1690299039	looking at
0.1690228591	particular attention
0.1690201599	factor of two
0.1690183712	a neural network
0.1690078681	a complete graph
0.1689989051	model for
0.1689931365	provide examples
0.1689870095	large set
0.1689854542	a crucial issue
0.1689572725	the movement of
0.1689572725	the face of
0.1689434178	the pde
0.1689313188	spectral properties of
0.1689255264	the depth of
0.1689222841	the experiment result shows
0.1689165636	to locate
0.1688966325	non text
0.1688965555	using ontologies
0.1688931873	distribution algorithms
0.1688857357	the maturity of
0.1688813179	key research
0.1688761947	a cluster head
0.1688378567	recent results on
0.1688247125	graphical representation of
0.1688233077	notion of
0.1688198767	the cluster head
0.1688139783	a biologically inspired
0.1687822459	first step toward
0.1687771851	with other algorithms
0.1687544132	the attacker
0.1687493727	to fulfill
0.1687324560	error bounds for
0.1687260407	to deliver
0.1687176277	an application
0.1686527992	the transfer of
0.1686527992	the planning of
0.1686527992	the error in
0.1686527992	the scheduling of
0.1686527992	the decision of
0.1686527992	the communication of
0.1686413078	coupling between
0.1686389290	software running on
0.1686321190	to solve large
0.1686308763	based method for
0.1686265716	a single pass
0.1686209588	a personalized
0.1686066771	widespread adoption of
0.1685955127	approach introduces
0.1685841546	a search engine
0.1685731086	np complete for
0.1685678843	much lower
0.1685629447	load balancing in
0.1685467835	networks with multiple
0.1684964481	the sum rate
0.1684656792	most famous
0.1684232731	every graph
0.1684162452	even more challenging
0.1684047275	based planning
0.1683910830	each frame
0.1683832469	relative performance
0.1683729111	method to improve
0.1683603137	the ad hoc network
0.1683503574	method to determine
0.1683391922	suffer from high
0.1683349420	the fairness of
0.1683308574	fault tolerance in
0.1683267076	time switched
0.1682791098	especially for large
0.1682701585	an observation
0.1682505609	based object
0.1682331189	in high dimensional space
0.1682058474	a recent result
0.1681804864	complete description of
0.1681267297	competition among
0.1681149105	to restore
0.1681015911	functional theory
0.1680996347	a peer to peer
0.1680899320	develop algorithms
0.1680749910	important feature
0.1680683836	the identity of
0.1680683836	the amplitude of
0.1680683836	the transformation of
0.1680615698	to assure
0.1680451632	in order to evaluate
0.1680316899	in order to alleviate
0.1680257523	accurate enough
0.1680021313	in multi hop wireless
0.1679572725	the consistency of
0.1679572725	the delivery of
0.1679572725	the acquisition of
0.1679542983	letter presents
0.1679263210	validated through
0.1679255264	the bandwidth of
0.1679031751	performance of
0.1678709069	hard task
0.1678644681	semantic image
0.1678616526	a new algorithm
0.1678603574	leading cause of
0.1678486692	patterns generated
0.1678233783	stage algorithm
0.1678196695	promising solution
0.1677995105	the human body
0.1677654118	interactive system
0.1677636422	approach for analyzing
0.1677282106	the bit error rate
0.1676831402	joint optimization of
0.1676527992	the localization of
0.1676527992	the accessibility of
0.1676383435	a distance based
0.1676368576	for real time traffic
0.1676343487	the inverse kinematics
0.1676235981	include 1
0.1676071950	performs better
0.1676059402	and low power consumption
0.1675937956	the end user
0.1675617855	translated to
0.1675603584	insights from
0.1675430952	the human brain
0.1675421233	detailed description of
0.1675249868	the cramer rao lower bound crlb
0.1675096434	in many application
0.1675075011	a novel clustering
0.1675034025	most interesting
0.1675026598	algorithm suitable for
0.1674899549	model based approach to
0.1674878317	turned into
0.1674742543	a multi objective evolutionary algorithm
0.1674376793	new kind of
0.1674160393	to accelerate
0.1673840917	results reported
0.1673637461	increasing popularity of
0.1673547885	systems arising
0.1673394316	in contrast to previous
0.1673384790	more than 60
0.1673349420	for recognition of
0.1673264218	based file
0.1673229430	transmit data
0.1673091340	sequence code
0.1673021220	occupied by
0.1672606986	the reachability problem
0.1672459844	the max min
0.1672446447	good scalability
0.1672251296	the example of
0.1672249795	conventional design
0.1672225195	the real world
0.1672073320	minimal number of
0.1671972935	very limited
0.1671851418	relative to
0.1671813017	unaffected by
0.1671471518	based event
0.1671155226	quality video
0.1671138932	a wide spectrum
0.1671060503	algorithm experimental results
0.1670962946	converges to
0.1670890176	significantly better
0.1670851198	efficient network
0.1670683836	the variability of
0.1670683836	the orientation of
0.1670683836	the reuse of
0.1670683836	the decomposition of
0.1670683836	the uncertainty of
0.1670655102	user wants
0.1670639971	to alleviate
0.1670380407	the eavesdropper
0.1670160139	a systematic method
0.1670008534	perform very well
0.1669907876	network classifier
0.1669854002	number of components
0.1669820577	set of states
0.1669572725	the adaptation of
0.1669532757	three case studies
0.1669496929	used to calculate
0.1669465219	first phase
0.1669425115	aware application
0.1669255264	the entropy of
0.1669254453	good performances
0.1669230878	series prediction
0.1669186164	based ranking
0.1668721987	the canadian
0.1668658015	consisting of multiple
0.1668509717	multiple levels of
0.1668009500	the outage capacity
0.1667956563	the compatibility of
0.1667956563	the index of
0.1667900803	the analytic hierarchy process ahp
0.1667640641	achieves better
0.1667539800	proposed detector
0.1667362202	complex distributed
0.1667346712	the expectation maximization em
0.1667304389	the vulnerability of
0.1666895871	the self organizing map som
0.1666711453	goodness of
0.1666678156	different from previous
0.1666609144	space algorithm
0.1666527992	the resilience of
0.1666527992	the engineering of
0.1666527992	this information in
0.1666527992	the migration of
0.1666527992	the displacement of
0.1666527992	the confidence of
0.1666391034	method to construct
0.1666280956	to calibrate
0.1666255283	the optimal
0.1666149827	approach to detect
0.1665717559	to enforce
0.1665582349	within subject
0.1665334009	a good trade off between
0.1665158933	conventional approach
0.1665133463	growing demand for
0.1665102762	investigate whether
0.1665099420	the symmetry of
0.1664922931	order accurate
0.1664847146	on behalf of
0.1664719292	detection problems
0.1664540050	vast amount
0.1664330653	brought about by
0.1664277281	willingness to
0.1664207862	non constant
0.1663920305	the input image
0.1663847305	3d modeling
0.1663612614	single application
0.1662873984	2 o
0.1662729403	error rate performance of
0.1662687870	a major role
0.1662251296	the interest of
0.1662063513	received significant
0.1661983845	to facilitate
0.1661861539	industrial case
0.1661672188	if and only if
0.1661602184	early detection of
0.1661164212	oriented business
0.1660892078	the achievable rate region
0.1660838684	the paper also presents
0.1660766239	an interval
0.1660716231	an urgent need
0.1660683836	the intensity of
0.1660683836	the pattern of
0.1660683836	the diffusion of
0.1660683703	connectivity between
0.1660259332	developed to estimate
0.1660191082	art image
0.1660038309	kind of
0.1660020302	original model
0.1659919550	to provide
0.1659574765	interested in
0.1659572725	the appearance of
0.1659572725	the focus of
0.1659572725	the assignment of
0.1659543301	the fact
0.1659509325	in order to increase
0.1659364521	class of continuous
0.1659329051	services provided by
0.1658943869	paper aims
0.1658913766	and scheduling in
0.1658625986	the maximum achievable
0.1658024251	good agreement
0.1657956563	and recognition of
0.1657956563	the measure of
0.1657909753	an e learning
0.1657493253	fundamentally different
0.1657483290	a major impact
0.1657372369	last section
0.1657306771	chip memory
0.1657247163	the mapreduce
0.1657225246	faced by
0.1657122175	the benefit of
0.1656841437	attractive alternative
0.1656809644	the original problem
0.1656587728	segmented into
0.1656527992	and simulation of
0.1656527992	the pose of
0.1656435923	a non cooperative
0.1656364256	illustrated through
0.1656099473	the amino acid
0.1656093448	methods based on
0.1655896851	performance advantage
0.1655874321	unlike other
0.1655857357	the survival of
0.1655549101	another advantage
0.1655154859	web services based on
0.1655060243	this approach
0.1655055243	the duty cycle
0.1654954672	important implications for
0.1654953658	discussion about
0.1654846185	simple algorithm
0.1654625312	in most cases
0.1654474679	a multi agent based
0.1654214233	efficient implementation of
0.1653979845	conventional scheme
0.1653894972	little effort
0.1653534642	choices made
0.1653349420	the bias of
0.1653349420	the matrix of
0.1653081846	maximal number
0.1652982040	in peer to peer networks
0.1652809365	most frequent
0.1652794214	this study develops
0.1652757588	fall into
0.1652596724	the main
0.1652547231	1 2 3
0.1652539074	the basics of
0.1652505830	leads to higher
0.1652431677	with incomplete information
0.1652330529	system z10
0.1652327096	core 2
0.1652252442	a power law
0.1652175112	the navier stokes equations
0.1651619152	the end to end
0.1651538247	different countries
0.1651457977	sum capacity of
0.1651420776	through silicon
0.1651323361	scheduling algorithms for
0.1651266083	number of channels
0.1651189477	case of multiple
0.1651124158	data captured
0.1650860041	implicated in
0.1650703057	an admission control
0.1650683836	the developed system
0.1650683836	the mobility of
0.1650641524	performance potential
0.1650612353	away from
0.1650177882	bag of
0.1650127442	significant throughput
0.1650124008	provided by
0.1649777556	a domain specific
0.1649700796	composed of multiple
0.1649623944	per channel
0.1649572725	the organization of
0.1648913766	of ict in
0.1648834556	channel wireless
0.1648772178	real human
0.1648760426	the lattice boltzmann
0.1648644410	tended to
0.1648511868	effective search
0.1648475382	a prioritized
0.1648271809	comment on
0.1648072318	approach for generating
0.1647956563	the placement of
0.1647956563	the rank of
0.1647956563	the correction of
0.1647956563	the life of
0.1647714485	advantage over
0.1647579116	familiarity with
0.1647475024	the realism of
0.1647342425	a new statistical
0.1647095029	scheme to reduce
0.1647062579	for face recognition
0.1646920089	infinite number of
0.1646803198	the svd
0.1646756419	preliminary analysis
0.1646527992	the restoration of
0.1646527992	the threshold of
0.1646527992	the information on
0.1646481664	quality images
0.1646342386	design space exploration of
0.1646109593	non trivial task
0.1645952272	data pre
0.1645846723	a service
0.1645604506	a new robust
0.1645474944	information collected
0.1645420727	small values
0.1644777992	the compliance of
0.1644653580	results agree
0.1644614628	compared to other existing
0.1644596135	and forward af
0.1644576652	the upper bound
0.1644520692	even for large
0.1644377785	to accommodate
0.1644246784	to initialize
0.1643690181	initial model
0.1643627028	consuming process
0.1643598371	highly sensitive to
0.1643443254	better than
0.1643428955	original ones
0.1643349420	the modulation of
0.1643079119	based on data mining
0.1642865561	bit error rate ber of
0.1642778933	in several applications
0.1642713416	deep understanding of
0.1642494822	an optimization based
0.1642465985	already existing
0.1642387536	to parallelize
0.1641970537	evaluation of
0.1641872124	to compute
0.1641546419	sub systems
0.1641505463	association rules from
0.1641391001	data demonstrate
0.1641358899	driven software
0.1641260368	billions of
0.1640683836	the safety of
0.1640683836	the monitoring of
0.1640597003	very convenient
0.1640563915	a video sequence
0.1640544980	the algorithm
0.1640526441	1 introduction
0.1640319737	approach aims
0.1640223938	a back propagation
0.1640184478	care system
0.1640105452	traditional learning
0.1639824245	the cell edge
0.1639572725	the attention of
0.1639572725	and optimization of
0.1639572725	the perspective of
0.1639572028	a recent paper
0.1639568586	the input signal
0.1639538357	this shortcoming
0.1639532362	a key aspect
0.1639529968	aware computing
0.1639461896	this framework
0.1639454820	the solution space
0.1639346644	an attempt
0.1639155185	novel approaches
0.1639084755	and forward protocol
0.1638927021	exchanged among
0.1638921380	in order to identify
0.1638332050	new construction
0.1638236917	different from existing
0.1638191936	design objective
0.1638127768	thus allowing
0.1638084321	face recognition based on
0.1638036739	software running
0.1637974873	n points
0.1637956563	the estimate of
0.1637956563	the inference of
0.1637956563	the trajectory of
0.1637956563	the strategy of
0.1637956563	this information to
0.1637956563	the gain of
0.1637956563	the tuning of
0.1637956563	the teaching of
0.1637956563	the profile of
0.1637907689	number of items
0.1637803044	the model
0.1637739949	method to reduce
0.1637555428	from microarray data
0.1637420692	applied to obtain
0.1637360051	new approach
0.1637292491	range wireless
0.1637272643	the smoothness of
0.1637182048	the human eye
0.1636666449	comprehensive review
0.1636623681	for people with
0.1636527992	the locality of
0.1636147289	a dynamic
0.1636123157	the gulf
0.1635551447	computation time
0.1635507499	proposed estimators
0.1635443069	among individuals
0.1635395013	the most suitable
0.1635113161	of spiking neurons
0.1634827751	each edge
0.1634777992	the contrast of
0.1634777992	the navigation of
0.1634424449	to defend against
0.1634247666	in polynomial time in
0.1634140918	article deals with
0.1633942845	into two categories
0.1633734215	in terms of
0.1633692301	quite difficult
0.1633689043	to compensate
0.1632903382	for multi agent systems
0.1632756975	negative impact on
0.1632529431	over fitting
0.1632272643	the intent of
0.1631418085	a comparison between
0.1631361325	the md
0.1631243334	virtual 3d
0.1631137961	applicable to
0.1630885879	10 3
0.1630844072	the fluctuation of
0.1630819804	a non trivial task
0.1630683836	the translation of
0.1630683836	the timing of
0.1630673959	a sufficient condition
0.1630504320	currently in use
0.1630409690	a parameterized
0.1630405020	a geometric
0.1630359144	based traffic
0.1630214254	covered by
0.1630112705	convergence behavior of
0.1630111219	without modifying
0.1630099060	other nodes
0.1629906878	a preliminary evaluation
0.1629775749	the problem
0.1629762417	accurate channel
0.1629753547	study develops
0.1629572725	the issue of
0.1629572725	the setting of
0.1629095231	the pc
0.1629085393	a mixed integer linear
0.1628607699	1 mm
0.1628503064	characteristics of
0.1628467678	sensors in order
0.1628389096	in order to facilitate
0.1628236917	one or multiple
0.1628221216	prone to
0.1627998559	the retailer
0.1627976063	meta analysis of
0.1627956563	the width of
0.1627956563	the interface of
0.1627956563	the recovery of
0.1627956563	the feature of
0.1627956563	a map of
0.1627956563	the ranking of
0.1627956563	the distortion of
0.1627880985	neural basis of
0.1627851748	a highly scalable
0.1627834187	recent study
0.1627659493	collect data from
0.1627457278	directed towards
0.1627389096	in order to validate
0.1627325008	a semi automatic
0.1627311062	the defender
0.1627214908	to classify
0.1626931359	spread across
0.1626887947	constrained minimum
0.1626706068	to select
0.1626289935	intersection between
0.1626178913	handle large
0.1625723563	old and new
0.1625511414	a computationally efficient
0.1625466757	an r
0.1625281161	efficient spectrum
0.1625252318	one week
0.1625209425	to generate
0.1625171890	dimensional images
0.1624780559	good agreement between
0.1624721267	number of genes
0.1624712719	study investigated
0.1624472961	proposed to overcome
0.1624462937	a multi objective
0.1624410947	set of constraints
0.1623953062	the ws
0.1623951991	approach makes
0.1623204428	a multi stage
0.1622894867	new and efficient
0.1622856712	i e
0.1622616386	hiding method
0.1622607801	each element
0.1622591695	an ecological
0.1622308888	on two real
0.1622251296	the help of
0.1622199069	all but one
0.1622003057	ray images
0.1621870192	visual analysis of
0.1621807406	computing community
0.1621349420	the science of
0.1621270427	feature extraction for
0.1621073617	to standardize
0.1620997730	comparison with existing
0.1620996897	a kernel based
0.1620945870	on real world data
0.1620301726	employed to improve
0.1619823319	a generative
0.1619676306	processor systems
0.1619661357	experiments carried
0.1619580780	least squares algorithm
0.1619572725	the requirement of
0.1619572725	the enhancement of
0.1619483153	an asynchronous
0.1618172850	3d point
0.1618040339	both linear and
0.1617956563	the edge of
0.1617956563	the layout of
0.1617956563	the height of
0.1617916416	a next generation
0.1617887554	in order to better understand
0.1617560953	to recognize
0.1617489815	at multiple levels
0.1617426957	the energy consumption
0.1617336540	design and implementation of
0.1617304389	the presented system
0.1617304389	the preservation of
0.1617304389	the redundancy of
0.1617219007	established methods
0.1617010573	the auc
0.1616949970	to maintain
0.1616784334	scale integration
0.1616768859	designed to solve
0.1616349297	against malicious
0.1616220708	supposed to
0.1616193278	the visibility of
0.1616138198	time dimension
0.1615859972	algorithm to generate
0.1615602300	coding scheme for
0.1615590898	an enhanced
0.1615525258	able to learn
0.1615332167	the lifecycle of
0.1615332167	the theme of
0.1615044349	the paper finds
0.1614940404	terminal problem
0.1614764707	the load on
0.1614764707	the criterion of
0.1614698273	process changes
0.1614664666	handled by
0.1614505475	defined by
0.1614480692	a pattern based
0.1614438006	generalized version
0.1614148713	non self
0.1614055608	large amount of
0.1613672064	to assist
0.1613568697	each cell
0.1613453669	at different scales
0.1613409426	algorithm for identifying
0.1613312772	present examples
0.1613196659	upper bound of
0.1612946224	the proposed circuit
0.1612905914	deviations from
0.1612662868	proposed architectures
0.1612380416	impacted by
0.1612253110	starting point for
0.1612112440	part 2
0.1611822844	the lattice boltzmann method
0.1611806564	the primary user
0.1611744833	during runtime
0.1611232312	information generated
0.1611213618	a brute force
0.1611180060	to better understand
0.1610738055	distinguishing between
0.1610393832	a proposal
0.1610255048	the next step
0.1609982208	derived in terms
0.1609918650	a recently proposed
0.1609572725	the coordination of
0.1609572725	the likelihood of
0.1609352044	specific model
0.1609110534	extensive experiments on
0.1608923161	aspects of
0.1608890790	based peer
0.1608801334	similar approach
0.1608741825	the extended kalman filter
0.1608315631	both synthetic and real
0.1607956563	the latency of
0.1607956563	the activation of
0.1607700141	a platform independent
0.1607628297	based access
0.1607602563	an exploration
0.1607357248	widely known
0.1607304389	the square of
0.1607289153	experimental results obtained on
0.1607124451	real web
0.1607100044	a gradient based
0.1607057359	developed to facilitate
0.1606688518	with other techniques
0.1606631371	this paper outlines
0.1606606848	automatic approach
0.1606527992	the environment with
0.1606276925	fewer than
0.1606193278	the discrimination of
0.1606193278	and retrieval of
0.1606193278	the coefficient of
0.1606193278	the methodology of
0.1605875818	the spectra of
0.1605569614	based packet
0.1605164770	non critical
0.1605111291	complex system
0.1604944614	based storage
0.1604870658	plethora of
0.1604777992	the contour of
0.1604777447	a destination node
0.1604764707	the proximity of
0.1603998897	a preliminary
0.1603520150	study extends
0.1603451255	degree at least
0.1602854774	network including
0.1602777992	the inversion of
0.1602520610	a new strategy
0.1602499187	noise control
0.1602460409	outperforms existing
0.1602269598	result in significant
0.1602251296	the cause of
0.1602197808	an indoor
0.1602182205	to embed
0.1602113500	approach for constructing
0.1602043770	the proposed control
0.1601899941	the second layer
0.1601883276	number of jobs
0.1601698337	technique to generate
0.1601676514	transmitter side
0.1601321530	sharing system
0.1601200266	optimal placement of
0.1601189492	characterization of
0.1600941513	and forward cooperative
0.1600821639	this new approach
0.1600788187	possible attacks
0.1600656348	proposed to estimate
0.1600488638	the mse
0.1600301717	and distributed delays
0.1600280649	plenty of
0.1599902136	a bottom up
0.1599843218	new technology
0.1599811519	posed by
0.1599572725	the sharing of
0.1599572725	the constraint of
0.1599572725	the exchange of
0.1599482178	approach to building
0.1599408299	take advantage of
0.1599311110	shown to
0.1599057810	the forefront
0.1598811944	algorithms to solve
0.1598446095	a star
0.1598400556	a modular
0.1598245366	specific network
0.1598233573	an increasingly popular
0.1598004575	analysis of data
0.1597877512	2008 john wiley sons ltd
0.1597682009	an e learning system
0.1597502020	fast enough
0.1597425363	a calculus
0.1597103120	less attention
0.1597027947	oriented analysis
0.1596680465	to gather
0.1596502570	the seminar
0.1596305601	the proposed techniques
0.1596251296	and so on
0.1596193278	the productivity of
0.1596193278	the consumption of
0.1596177820	assumed to
0.1596030146	the diversity multiplexing
0.1595841135	to circumvent
0.1595785960	class of systems
0.1595761482	several numerical examples
0.1595712287	high communication
0.1595634625	coding approach
0.1595539957	results show
0.1595520750	acting as
0.1595446591	the round trip
0.1595417509	support vector machines for
0.1595272012	image segmentation based on
0.1594998969	to retrieve
0.1594906095	perform well
0.1594901271	in order to
0.1594771878	one by one
0.1594676575	a 2 dof
0.1594653596	of bytes in
0.1594587516	the code of
0.1594564156	full order
0.1594501497	connected if
0.1594346604	every pixel
0.1594163518	series data
0.1594082676	significant influence on
0.1594049104	arriving at
0.1594035824	first author
0.1593975247	performance gain over
0.1593912475	traffic generated by
0.1593528972	interact with
0.1593520401	identity protocol
0.1593493760	a new construction
0.1593439545	and so forth
0.1593366081	separated by
0.1593272643	the soundness of
0.1593255171	new hybrid
0.1592640696	n space
0.1592619479	a feasible solution
0.1592153522	second order linear
0.1592064035	a block cipher
0.1592030405	analogous to
0.1591687996	able to achieve
0.1591669129	performance improvement over
0.1591507497	number of robots
0.1591361175	the resultant
0.1591269772	p system
0.1590972849	a key challenge
0.1590741712	to prepare
0.1590643480	millions of people
0.1590531256	a fuzzy logic controller
0.1590277698	recent past
0.1590277382	1 r
0.1590274848	level performance
0.1590091399	an implicit
0.1589860571	more accurately
0.1589572725	the overhead of
0.1589572725	the maintenance of
0.1589572725	in support of
0.1589534639	types of
0.1589386561	to replace
0.1589130039	common data
0.1588808745	the variational iteration method
0.1588527081	subsets of
0.1588384056	a constrained optimization problem
0.1588187459	original method
0.1588147393	every frame
0.1588105668	differential equations with
0.1587538434	minimize energy
0.1587531255	detailed information about
0.1587272643	the comprehension of
0.1587260937	potential of using
0.1587196596	designed to improve
0.1587184323	exact method
0.1587104725	different size
0.1586947818	quantitative measure of
0.1586722429	in order to verify
0.1586193278	the event of
0.1586193278	the degradation of
0.1586183125	time span
0.1586061371	3d images
0.1585966891	two new algorithms
0.1585844072	the implication of
0.1585717398	and forward df
0.1585648318	some numerical examples
0.1585554153	outperforms state of
0.1585444257	huge number of
0.1585360679	captured by
0.1585332167	the persistence of
0.1585310086	some special cases
0.1584977194	a multiagent
0.1584974914	high bit
0.1584777992	the ensemble of
0.1584694366	approach to identify
0.1584644363	obtained from
0.1584519682	modern computer
0.1584509378	direct access to
0.1584481847	do not require
0.1584235176	even if
0.1584125818	the display of
0.1583962233	able to recover
0.1583883058	paper studies
0.1583803127	hundreds of thousands of
0.1583661865	a decentralized
0.1583632474	root causes of
0.1583187175	the second half
0.1583098559	a novel dynamic
0.1583092827	commercial search
0.1583057770	three phases
0.1583042871	oriented programs
0.1583022556	up to 25
0.1582781184	algorithm to estimate
0.1582560661	a taxonomy
0.1582442301	much effort
0.1582273867	comprised of
0.1582217800	very costly
0.1581993348	better scalability
0.1581138684	future design
0.1580879450	10 m
0.1580494474	combined with
0.1580438545	one or two
0.1580191082	proposed estimator
0.1580153431	compared to standard
0.1580087234	technologies to support
0.1579933405	an ar
0.1579879851	the minimum spanning tree
0.1579730878	point boundary
0.1579605317	the new scheme
0.1579572725	the light of
0.1579331775	this article reports
0.1579094072	the disclosure of
0.1578871850	the name of
0.1578680297	no prior knowledge
0.1578664250	entropy model
0.1578615215	an approach
0.1578607660	design implementation and evaluation of
0.1578598220	to automatically generate
0.1578558353	not trivial
0.1578447802	developed to solve
0.1578030833	with missing data
0.1577856561	the so called
0.1577809378	automatic construction of
0.1577759974	in line with
0.1577654511	3 5
0.1577610306	a configurable
0.1577522201	aim at
0.1577289352	finite number of
0.1577211646	the method
0.1577096293	approach to extract
0.1577004548	robust way
0.1576845452	the relation of
0.1576826530	an urban environment
0.1576487934	maximization algorithm
0.1576333464	the dutch
0.1576230487	returned by
0.1576193278	a vector of
0.1576193278	the cooperation of
0.1576193278	the randomness of
0.1575659434	a cluster based
0.1575593980	each client
0.1575499102	based on web services
0.1575477192	time evolution
0.1575319517	more effective
0.1575099102	proposed method consists
0.1574813511	present results from
0.1574701003	bounds on
0.1574588123	data acquired from
0.1574554118	crucial task
0.1574488613	exposed to
0.1574484580	an effective
0.1574194145	the optimal cost
0.1574024753	number of packets
0.1573416591	a deeper understanding
0.1573251296	for use in
0.1573221064	explicit representation of
0.1573079642	based on dynamic programming
0.1572945706	estimation of
0.1572922621	fundamental problem
0.1572875304	problem at hand
0.1572807153	of gene regulatory networks
0.1572783303	to integrate
0.1572582762	linear and non
0.1572469997	the agent to
0.1572400351	more accessible
0.1572383707	accurate modeling of
0.1572270350	approach for evaluating
0.1572244979	modelled as
0.1572189934	the conventional method
0.1572147730	method aims
0.1572147454	a noncooperative
0.1572089866	the paper includes
0.1572079548	the last decades
0.1571939521	set of images
0.1571435291	a new linear
0.1571416922	the original version
0.1571132969	contributed to
0.1571048524	evidenced by
0.1570895562	other disciplines
0.1570767319	explicit representation
0.1570759856	the aid of
0.1570609729	targeted towards
0.1570565492	served as
0.1570557400	method to analyze
0.1570477397	the open source
0.1570205651	a possibilistic
0.1569990818	small fraction of
0.1569690275	propose to model
0.1569588281	rate capacity
0.1569572725	the topic of
0.1569478341	as opposed to
0.1569314647	equivalence between
0.1569226173	model for estimating
0.1568999243	this algorithm
0.1568976210	responded to
0.1568914769	similar to
0.1568743148	to stand
0.1568617632	a regularized
0.1568435792	the tcp
0.1568384876	concern about
0.1568261860	a proof of concept
0.1568097146	less than or equal to
0.1568056711	especially for high
0.1567063028	quality of software
0.1566993837	particle swarm optimization with
0.1566972023	responds to
0.1566879123	accurate representation
0.1566809207	a linear time algorithm
0.1566683600	structural properties of
0.1566610366	to optimise
0.1566562680	a certain extent
0.1566366128	measurements taken
0.1566297676	to estimate
0.1566273933	automatic classification of
0.1566272643	the exception of
0.1566212178	very high
0.1566193278	the projection of
0.1566193278	a point in
0.1566193278	the manipulation of
0.1566162081	with regards to
0.1566016087	the refinement of
0.1565937766	significant differences in
0.1565424217	routing algorithm for
0.1565269289	developed to predict
0.1564680460	better understand
0.1564675989	approach to analyze
0.1564355741	decisions regarding
0.1564313519	under varying
0.1564125818	the health of
0.1563900387	to defeat
0.1563710277	database containing
0.1563555725	objective problem
0.1563461917	al 2009
0.1563404280	accurate estimate of
0.1563323897	an access point
0.1563135876	low levels of
0.1563065637	proposed to enhance
0.1563028629	a predictive
0.1563014707	the kinematics of
0.1562876368	percentage of
0.1562515277	achieve better
0.1562369350	model to estimate
0.1562111542	step towards
0.1561950345	the lagrangian
0.1561879010	a virtual reality
0.1561848180	the moderating
0.1561703634	technique based on
0.1561659671	becomes more and more important
0.1561633213	different scales
0.1561622027	very strong
0.1561413302	complete model
0.1561001251	accounts for
0.1560623203	two players
0.1560571966	special focus on
0.1560388648	translation systems
0.1560365098	an auto
0.1559959983	to attain
0.1559819945	a fuzzy
0.1559790805	based computing
0.1559681455	an algorithm
0.1559600277	retrieval based
0.1559253306	cone programming
0.1558601440	algorithms based on
0.1558022236	the one dimensional
0.1558018938	a web site
0.1557766250	novel hierarchical
0.1557719817	an access control
0.1557117967	types of services
0.1557043722	to conceal
0.1556907631	the robot
0.1556809013	relating to
0.1556658945	the bit error probability
0.1556193278	the coupling of
0.1556193278	the insertion of
0.1556082681	expressed as
0.1555926869	optical properties of
0.1555609012	attractive alternative to
0.1555363913	the division of
0.1555356112	to promote
0.1555265565	less than half
0.1555260359	parameterized by
0.1555065708	research problem
0.1555058387	to remove
0.1555016120	a 65 nm
0.1554985020	decision support system for
0.1554887203	representation of
0.1554853625	analysis of biological
0.1554764707	the balance of
0.1554764707	the complement of
0.1554764707	the sign of
0.1554701289	learned from
0.1554688488	able to generate
0.1554679649	to realise
0.1554293167	the sea surface
0.1553872054	the design process
0.1553635764	a real life
0.1553495619	the past years
0.1553451923	explicit expressions for
0.1553263612	computer vision system
0.1553134625	based inference
0.1552955217	compromise between
0.1552849683	framework based on
0.1552761399	contributing to
0.1552750850	an elementary
0.1552514626	algorithm to construct
0.1552503107	for high performance computing
0.1552251296	the way for
0.1552250357	checking techniques
0.1552192498	disk graphs
0.1552017178	verified through
0.1551986668	in order to prevent
0.1551951968	based development
0.1551844072	the responsibility of
0.1551428714	more efficient
0.1551322786	comprehensive understanding of
0.1551014707	the suppression of
0.1550762803	guided by
0.1550467010	fractional frequency
0.1550412835	codes over
0.1550375532	analysis based on
0.1550332167	the reusability of
0.1550206187	amounts of information
0.1550199421	an experimental
0.1549825529	delivery time
0.1549581694	strongly related to
0.1549572725	the progress of
0.1549572725	the phenomenon of
0.1549572725	the heterogeneity of
0.1549326827	a delay dependent
0.1549241393	to recover
0.1549133696	large class
0.1549096136	a novel approach
0.1548988146	a simple
0.1548856965	slightly better
0.1548845244	an ensemble
0.1548802539	without prior knowledge
0.1548780206	control systems with
0.1548636816	a game theoretical
0.1548202840	a wireless network
0.1547947086	an agile
0.1547805271	recent times
0.1547721456	an impedance
0.1547341191	the ergodic capacity
0.1547327195	exposure to
0.1547165689	an optimisation
0.1547154379	converge to
0.1547078795	check whether
0.1547052752	the watermark
0.1547048140	collected during
0.1546606581	experiment results indicate
0.1546410700	framework developed
0.1546379350	techniques for improving
0.1546369824	extraction ie
0.1546193278	the regulation of
0.1546193278	the hierarchy of
0.1546193278	the effort of
0.1546193278	the runtime of
0.1546193278	the vision of
0.1546193278	the expansion of
0.1546193278	the prototype of
0.1546193278	the arrival of
0.1546193278	the protection of
0.1546193278	and adaptation of
0.1546193278	a throughput of
0.1546193278	the building of
0.1546193278	the release of
0.1546193278	the rate at
0.1546016249	incapable of
0.1545673467	advantages over
0.1545624084	algorithm to optimize
0.1545332167	the accumulation of
0.1545146163	a population based
0.1545109080	standard method
0.1545072137	on multi core
0.1544926983	problem of computing
0.1544908676	a key technology
0.1544901638	algorithm to extract
0.1544740765	occurred during
0.1544636872	tool to study
0.1544572725	a source of
0.1544537376	a multi modal
0.1544472378	of gene expression
0.1544166399	the upper layer
0.1544152027	set of size
0.1544125818	the unit of
0.1543671715	simple and easy to
0.1543644914	an effective means
0.1543610034	functional approach
0.1543593772	to adapt
0.1543462887	the cellbe
0.1543304509	an intelligent system
0.1543236654	the manufacturer
0.1543114782	well suited for
0.1543066794	problem of scheduling
0.1542858042	of two components
0.1542746993	number of players
0.1542451199	paper contributes to
0.1542330240	the most attractive
0.1541816837	equivalent to
0.1541432502	used to predict
0.1541398818	a simulation environment
0.1541384603	the literature
0.1541335102	capture system
0.1541204713	stream management
0.1541180269	the sink node
0.1540911935	applied to evaluate
0.1540875557	in order to maintain
0.1540726330	systems with input
0.1540641095	perceived quality of
0.1540276556	to stabilize
0.1540216931	the one hand
0.1540183469	an important aspect
0.1540125868	continue to
0.1539606868	an unbounded
0.1539572725	the maximization of
0.1539549295	approach to tackle
0.1539525782	a lazy
0.1539525749	each sensor
0.1539510372	very low
0.1539010438	to reach
0.1538781823	systems with time
0.1538540816	significant reduction of
0.1538418481	results verify
0.1538222866	class of applications
0.1538182913	by exploiting
0.1538059281	orthogonal matching
0.1537971960	many important applications
0.1537894272	linear parameter
0.1537772435	the current situation
0.1537741068	decision making process in
0.1537648507	high degree of
0.1537164029	compared to classical
0.1536985643	energy efficient than
0.1536862325	algorithm to reduce
0.1536650352	chain analysis
0.1536502061	a relational database
0.1536437372	sufficient conditions under
0.1536278199	most significant
0.1536193278	the fidelity of
0.1536193278	the frame of
0.1536177820	adapted to
0.1536099088	planar graphs with
0.1536071318	a genetic algorithm
0.1535868298	the proposed receiver
0.1535724109	the proposed algorithm performs
0.1535699121	intrinsic properties of
0.1535656434	implementation of
0.1535501864	users interest
0.1535418015	analysis of human
0.1535366963	system hvs
0.1535168629	delay performance of
0.1534764707	the computing time
0.1534744774	discriminating between
0.1534689179	techniques to reduce
0.1534589712	modeled by
0.1533691040	computing techniques
0.1533633782	this new algorithm
0.1533620714	so as to
0.1533318033	index system
0.1533293695	the current state
0.1533286147	on several real
0.1533251296	with and without
0.1533091653	superior performance over
0.1532995903	the long tail
0.1532881136	two dimensional space
0.1532547676	to increase
0.1532461356	study design
0.1532237216	as follows 1
0.1532151335	to evaluate
0.1531985641	basic properties of
0.1531852172	to convert
0.1531815762	few minutes
0.1531501440	model for multi
0.1531496201	proposed metrics
0.1531455457	to obtain
0.1531369910	types of knowledge
0.1531361877	for large scale problems
0.1531310953	to prevent
0.1530942143	by means of
0.1530863283	a source node
0.1530833469	not clear
0.1530613135	traditionally used
0.1530590384	an acyclic
0.1530402556	discrete particle
0.1530234677	method performs well
0.1530192331	participated in
0.1529922476	tool for solving
0.1529916931	proposed fusion
0.1529914306	c programming
0.1529572725	the neighborhood of
0.1529552867	much greater
0.1529439713	the original query
0.1529240777	occur during
0.1529201993	parallel algorithm for
0.1529052439	illustrated by
0.1529024981	applied to generate
0.1528966318	using matlab
0.1528945110	new results on
0.1528871850	the time taken
0.1528600976	an outlier
0.1528588637	full range
0.1528364294	the end to end delay
0.1528339860	a statistical model
0.1528277585	shown to produce
0.1527561105	in heterogeneous wireless networks
0.1527551759	a byproduct
0.1527257307	receiver side
0.1527177510	a self organizing
0.1527004320	and if so
0.1526840730	for multi objective optimization
0.1526822887	the suggested method
0.1526747959	defined as follows
0.1526636043	based distance
0.1526436153	an automatic method
0.1526286211	average bit
0.1526273674	techniques for solving
0.1526258537	different views
0.1526242244	to perform
0.1526193278	the dissemination of
0.1526193278	a theorem of
0.1526193278	the fabrication of
0.1526143506	differences in
0.1526141509	step algorithm
0.1526016087	the real system
0.1525648820	significant improvements in
0.1524966534	et al 1
0.1524849410	problems related to
0.1524587539	number of sources
0.1524586528	1 3
0.1524365798	each layer
0.1524266509	programming methods
0.1524082863	spanner of
0.1523828907	users perception of
0.1523825887	do not exist
0.1523744424	method to design
0.1523736352	of great importance
0.1523640891	the basic principle
0.1523589630	hundreds of
0.1523452833	an ideal
0.1523272722	to reconcile
0.1523201489	to implement
0.1523182376	begins with
0.1523177126	users to explore
0.1522882495	dual algorithm
0.1522820610	not always
0.1522750605	best first
0.1522724663	a distributed
0.1522516194	proposed to analyze
0.1522473852	does not know
0.1522036275	a single antenna
0.1521670368	approach to improve
0.1521664110	optimal subset
0.1521193278	the adaptability of
0.1521193278	the elimination of
0.1520989307	and forward relaying
0.1520867116	defined as
0.1520801802	next level
0.1520790203	for vehicular ad hoc
0.1520561834	mounted on
0.1520408812	a computer assisted
0.1520378753	approach to study
0.1520327863	major design
0.1519975228	modified version of
0.1519916013	scheme to improve
0.1519612313	a radial basis function
0.1519573414	a critical component
0.1519504075	results obtained using
0.1519499231	based synchronization
0.1519430002	decision making based on
0.1519427145	to encourage
0.1519401612	a class of discrete time
0.1519401459	at different time
0.1519374965	nash equilibria of
0.1519348074	time encoding
0.1519285224	the chinese
0.1519172112	a priori knowledge about
0.1519120342	set of tools
0.1519111867	involved in
0.1518498381	research focuses on
0.1518456046	in order to provide
0.1518401951	a federated
0.1518220840	choosing appropriate
0.1518189455	highest possible
0.1517240793	impact on performance
0.1517233829	brief introduction to
0.1517008713	two link
0.1517004320	two or three
0.1516663486	a software package
0.1516650360	performs significantly
0.1516595611	an important
0.1516193278	the regularity of
0.1516193278	the derivative of
0.1516193278	the procedure of
0.1516141509	integration systems
0.1515436064	carlo method
0.1515363913	between human and
0.1515299268	to interference plus noise ratio
0.1515281557	proposed to detect
0.1515178109	singular values of
0.1514951002	both positive and negative
0.1514830618	based on artificial neural networks
0.1514822946	full papers
0.1514764707	the prevention of
0.1514427512	1 m
0.1514420351	this new technique
0.1514252802	the enforcement of
0.1514090951	tends to
0.1513882568	the proposed ga
0.1513816363	the convex hull
0.1513785416	resource allocation in
0.1513539415	by wire
0.1513403098	the golden
0.1513345017	the capacity region
0.1513163788	a discrete event simulation
0.1513109258	a systematic design
0.1512647451	the purpose of
0.1512587521	a short term
0.1512428776	depended on
0.1512212626	concentrating on
0.1512182509	a 3 d
0.1512151335	to develop
0.1512094072	the linearity of
0.1511934919	not yet
0.1511844072	the preparation of
0.1511628236	the error floor
0.1511626010	the buyer
0.1511579552	more than half
0.1511398950	the rst
0.1511259467	new type
0.1511193278	the restriction of
0.1511015286	compared to state of
0.1510789604	algorithm to obtain
0.1510736633	the european
0.1510609180	80211 based
0.1510582401	available resources
0.1510381465	while driving
0.1510250157	alternative method
0.1509958784	differ from
0.1509812313	strategy based on
0.1509490912	deliver high
0.1509459884	comparison with other
0.1509441155	set of equations
0.1509353849	n nodes
0.1509304427	a very important role
0.1509097075	wider range of
0.1509080206	do exist
0.1509039540	on campus
0.1508875427	solved by
0.1508864847	the context aware
0.1508515834	source information
0.1508498581	the software development process
0.1508332105	subset of
0.1508272643	the tendency of
0.1508055929	more complex
0.1507951437	making sense
0.1507951436	to align
0.1507916364	to counteract
0.1507511337	art method
0.1507356941	model to capture
0.1507252699	explicit time
0.1507251084	to stimulate
0.1506892439	relatively short
0.1506869257	with high accuracy
0.1506788038	number of vehicles
0.1506326252	particle swarm optimization for
0.1506297732	a new scheme
0.1506249697	to disambiguate
0.1506193278	the intention of
0.1506193278	the granularity of
0.1506193278	the style of
0.1506193278	the participation of
0.1506193278	the handling of
0.1506193278	the conversion of
0.1506193278	the threat of
0.1506193278	the manner in
0.1506171843	while achieving
0.1506152516	arise from
0.1506105271	higher classification
0.1505919993	more broadly
0.1505824651	expected number of
0.1505211863	originally developed for
0.1505147367	to enable
0.1505049014	concentrated on
0.1505039401	to verify
0.1504828827	the other side
0.1504764707	the publication of
0.1504764707	the induction of
0.1504699428	performance comparable to
0.1504640144	the proposed estimators
0.1504597322	communication between
0.1504408783	progress made
0.1504233932	supplementary data
0.1504215756	a lower bound
0.1504140850	help developers
0.1504132350	machine learning approach to
0.1503392692	in comparison to
0.1503331723	compatibility between
0.1503014707	a power of
0.1502923938	an intrusion
0.1502870524	this paper revisits
0.1502683535	versions of
0.1502626258	the virtual world
0.1502489155	large quantities
0.1502412084	decoding algorithms for
0.1502374521	important design
0.1502156221	world problems
0.1502023089	level languages
0.1502009576	centered at
0.1501704828	for content based image
0.1501357987	tied to
0.1501355136	inspired algorithms
0.1501344533	up to 40
0.1501193278	a stream of
0.1500961985	classified into three
0.1500954321	method to identify
0.1500590592	the state of
0.1500439707	classical approach
0.1500402153	capture data
0.1500357847	a graph
0.1500127030	of learning to
0.1500086502	data obtained from
0.1499969658	approach to robust
0.1499944716	on improving
0.1499892737	designed to reduce
0.1499710077	more closely
0.1499572725	the automation of
0.1499298140	an unprecedented
0.1499227835	this paper argues
0.1499193283	over segmentation
0.1499084837	starts with
0.1498957409	an intelligent tutoring
0.1498794706	the trade offs
0.1498779308	minimal impact on
0.1498630064	this new scheme
0.1498560685	do not take into account
0.1498558193	with n vertices
0.1498478432	applied to reduce
0.1498211978	a three phase
0.1498176797	the network layer
0.1497889166	the important role of
0.1497630546	a business process
0.1497550828	types of noise
0.1497250136	object tracking in
0.1497151549	controller design for
0.1497151335	to address
0.1497067589	much more
0.1496945645	number of queries
0.1496883072	scheme for multi
0.1496765638	an experience
0.1496733696	clearly indicate
0.1496218583	a new direction
0.1496193278	a matrix of
0.1496193278	the satisfaction of
0.1496193278	the answer to
0.1496193278	the trend of
0.1496193278	the demand of
0.1496193278	the paradigm of
0.1496193278	the character of
0.1496150731	embedded into
0.1496120935	proposed to obtain
0.1495917454	method to obtain
0.1495787734	an optimization algorithm
0.1495772226	leads to improved
0.1495453651	an exception
0.1495368566	to customize
0.1495276433	task in many
0.1495156915	scale information
0.1495123481	four years
0.1495019595	multi processor system
0.1494973835	to simplify
0.1494868013	the vortex
0.1494764707	the syntax of
0.1494764707	the interconnection of
0.1494764707	the kernel of
0.1494764707	the controlled system
0.1494718298	a two step approach
0.1494595184	risks associated with
0.1494249311	in order to guarantee
0.1494211589	a time dependent
0.1494155027	in real world applications
0.1494127871	number of agents
0.1493510381	probability density function pdf of
0.1493246719	linear time algorithm for
0.1493243679	a relay node
0.1492979391	2 x
0.1492871935	accurate 3d
0.1492809948	particularly interesting
0.1492776394	presents results from
0.1492760507	the objective function
0.1492499137	minimal set
0.1492365085	algorithms for
0.1492286965	compatible with
0.1492239880	multiple types
0.1492088620	experiments show
0.1492002802	reduction based on
0.1491680725	based multimedia
0.1491133559	acquired during
0.1491095387	an enterprise
0.1491082189	art techniques
0.1491077510	an auxiliary
0.1490875359	numerical method for
0.1490728423	organized into
0.1490700838	used to estimate
0.1490651000	zero moment
0.1490628869	divided into several
0.1490597373	approach for
0.1490546192	a monotone
0.1490530580	the option to
0.1489980109	too many
0.1489972676	more and more attention
0.1489968423	based pattern
0.1489862228	size k
0.1489812969	a major advantage
0.1489731136	algorithm consists
0.1489722999	better performance than
0.1489691322	to minimize total
0.1489245745	a vision based
0.1488834877	framework to evaluate
0.1488793672	protocol based on
0.1488638224	the transmitted signal
0.1488607364	problem by proposing
0.1488568466	approach lies
0.1488508518	high resolution remote
0.1488391885	more than 30
0.1488203967	best known
0.1488017235	generalized version of
0.1487832739	similarity among
0.1487728906	a single source
0.1487658220	this work presents
0.1487441181	a user
0.1487239189	analyzed in detail
0.1487161444	add on
0.1486998691	model to study
0.1486935662	application to
0.1486891366	developed to provide
0.1486784106	the rate distortion
0.1486723307	algorithm to learn
0.1486638913	the wild
0.1486627032	the final
0.1486317957	proposed to support
0.1486255485	an artificial
0.1486193278	the physics of
0.1486193278	the scenario of
0.1486193278	the decrease of
0.1486193278	a decomposition of
0.1486193278	and reuse of
0.1486193278	the dependency of
0.1486193278	the error between
0.1486193278	the action of
0.1486019623	number of servers
0.1485905856	studied in detail
0.1485834247	relatively large
0.1485812210	challenging because
0.1485688019	characterisation of
0.1485480089	complete analysis
0.1485414900	require knowledge
0.1485283683	a single objective
0.1485152415	much lower than
0.1485068786	a service oriented architecture soa
0.1485053392	secure multi
0.1484957677	scheme for
0.1484764707	a resolution of
0.1484764707	the adjustment of
0.1484764707	the complete system
0.1484505176	many researchers
0.1484402640	engaged in
0.1484263976	crossing rate
0.1484029791	achieve better performance than
0.1483817972	divergence between
0.1483665224	to eliminate
0.1483655313	more reliable
0.1483593772	to express
0.1483389542	portions of
0.1483337182	domain features
0.1483308468	a train
0.1483234427	about 50
0.1483228890	mac protocols for
0.1483209504	a single channel
0.1483133123	a token
0.1483014707	the independence of
0.1483011913	the gaussian
0.1482815952	hybrid multi
0.1482761399	insensitive to
0.1482520914	a gaussian
0.1482502092	m cmos process
0.1482488345	the log likelihood
0.1482472436	this system to
0.1482378945	practical approach
0.1482349174	motion planning for
0.1482029429	becoming more and more important
0.1481874603	more detailed
0.1481864673	new attack
0.1481589242	geometric properties of
0.1481360142	alignment between
0.1481225368	the speech signal
0.1481167815	a promising candidate
0.1481093555	important to develop
0.1481085162	the reasons for
0.1481024404	high recognition
0.1480892272	very interesting
0.1480700838	used to generate
0.1480662765	the main difficulty
0.1480610771	frames per
0.1480549967	ptas for
0.1480209239	for breast cancer
0.1479871850	for use with
0.1479658695	based on chaotic
0.1479611324	mechanical properties of
0.1479371169	the regularization parameter
0.1479343423	based signature
0.1479328405	this article analyzes
0.1479321358	the top ranked
0.1478917382	algorithm for multi
0.1478781066	multimedia sensor networks
0.1478774333	realized by
0.1478725573	becoming more and more
0.1478547996	resolution approach
0.1478130781	method for automatic
0.1477870221	set of benchmarks
0.1477832950	the packet loss rate
0.1477760466	considerably less
0.1477482139	individual differences in
0.1477266903	take full advantage of
0.1477070747	last level
0.1476684920	different resolutions
0.1476577394	much more difficult
0.1476505026	to discriminate
0.1476371486	inspiration from
0.1476282149	priori knowledge about
0.1476193278	the variance in
0.1476177820	equal to
0.1475894060	in wireless networks
0.1475623555	described in detail
0.1475450476	regardless of
0.1475370890	an iterative approach
0.1474988973	rate r
0.1474764707	the formalism of
0.1474764707	the collaboration of
0.1474192887	this article addresses
0.1474075329	two real world
0.1473893254	1 4
0.1473808710	fine tuning of
0.1472970182	a divide and conquer
0.1472930945	approach to generate
0.1472925380	the spanish
0.1472659582	split into
0.1472543691	able to produce
0.1472535545	a novel video
0.1472140079	each block
0.1471867281	advances in
0.1471560719	learn about
0.1471328710	improvement over
0.1471183889	applied to improve
0.1471079596	design of
0.1470993852	computer software
0.1470873229	unable to
0.1470756430	level language
0.1470473698	interesting problem
0.1470337923	major advantage of
0.1470136962	driven simulations
0.1470072620	right time
0.1469826033	robust method
0.1469151428	communication among
0.1469139064	nature of
0.1469126174	algorithms to compute
0.1468995638	a finite state
0.1468926271	reduce packet
0.1468706908	aspects related to
0.1468329886	past work
0.1468299117	polynomials over
0.1468275895	n threshold
0.1468267015	far less
0.1468213351	into three categories
0.1468156417	able to identify
0.1468112336	3 3
0.1468055929	more general
0.1468046362	the energy saving
0.1467972128	in house
0.1467787869	contributor to
0.1467627357	by applying
0.1467330893	approach to designing
0.1467254296	comes from
0.1467228660	a global scale
0.1467198173	considerable performance
0.1467112889	on going
0.1467063128	well supported
0.1466938416	as early as possible
0.1466881879	the cell processor
0.1466819376	able to communicate
0.1466698468	new algorithm
0.1466512005	linked to
0.1466445263	tailored to
0.1466409879	the developed method
0.1466407256	an essential role
0.1466212947	to assign
0.1466143124	np hard for
0.1465829668	deduced from
0.1465808066	a new mechanism
0.1465764707	the discipline of
0.1465618420	in many cases
0.1465460808	up to 100
0.1465363441	algorithm to detect
0.1465214670	complex real
0.1465134642	a cornerstone
0.1464823101	support for
0.1464761165	the most efficient
0.1464676148	the neural network
0.1464332615	to test whether
0.1464238276	to produce
0.1464208035	fault tolerance for
0.1464116105	first derivative
0.1464043062	a stand alone
0.1463868393	a reflective
0.1463849534	retrieved from
0.1463749835	with respect to
0.1463582385	averaged over
0.1463554057	little research
0.1463437922	by adding
0.1463297672	rapid changes
0.1463162534	the ministry
0.1463014707	the priority of
0.1462814233	second level
0.1462669385	to augment
0.1462608727	model to evaluate
0.1462392011	both academia and
0.1462386884	successfully tested on
0.1462322917	bring about
0.1462237482	interaction ppi
0.1462144015	new families
0.1462004837	useful insights
0.1461855926	able to recognize
0.1461844753	operated by
0.1461585217	with time varying
0.1461386517	compared to other methods
0.1461174739	comments on
0.1461160929	a challenging issue
0.1461046026	special class of
0.1460994955	used to determine
0.1460905043	very short
0.1460740596	return on
0.1460719368	user acceptance of
0.1460562224	to interpret
0.1460492725	the context of
0.1460443180	technique to estimate
0.1459968015	graph g v
0.1459958937	better results than
0.1459621508	effective feature
0.1459531915	based path
0.1459456958	present findings
0.1459428531	a high level of abstraction
0.1459118928	two variable
0.1458554812	the intruder
0.1458462303	a critical factor
0.1458305491	effective management of
0.1458007757	a fundamental issue
0.1457878512	n elements
0.1457723213	diagnosability of
0.1457659834	pros and cons of
0.1457637775	parallel interference
0.1457562436	comparable to
0.1457511499	a user centered
0.1457399488	to localize
0.1457382052	positive solutions for
0.1457193278	the completion of
0.1456918123	a wide area
0.1456875166	in spite of
0.1456784602	in service oriented architectures
0.1456752802	of vertices in
0.1456493000	able to extract
0.1456244559	a wide range of applications
0.1456244065	a finite dimensional
0.1456096724	overall system performance
0.1456011181	a secret key
0.1455940924	several decades
0.1455877683	a use case
0.1455589818	consistency between
0.1455531743	each group
0.1455465016	the most difficult
0.1455371347	three major
0.1455341535	an automobile
0.1454785488	an initial
0.1454764707	the act of
0.1454764707	the gain in
0.1454578314	more meaningful
0.1454563548	an arc
0.1454535037	to navigate
0.1454505126	the pll
0.1454336617	article focuses on
0.1454271813	implied by
0.1454252802	the information available
0.1453605808	the input graph
0.1453097780	non relevant
0.1453094072	the violation of
0.1453014707	the option of
0.1452989015	a lightweight
0.1452943942	more than 40
0.1452935100	varying number of
0.1452924159	interaction among
0.1452774422	as special cases
0.1452601481	extensive performance
0.1452180853	new classes
0.1452078854	proposed for
0.1451996675	extensive use of
0.1451995329	a recently developed
0.1451993695	this end
0.1451991023	the job shop
0.1451792487	a near optimal solution
0.1451382932	lack of
0.1451283613	a computational model
0.1451084105	on screen
0.1450583920	the latter case
0.1450350501	a tabu search
0.1450277441	a combinatorial optimization problem
0.1449840740	do not hold
0.1449672852	proven useful
0.1449528588	a normative
0.1449265550	each sentence
0.1449124900	different time scales
0.1449096781	based workflow
0.1448902411	not enough
0.1448747734	extract information
0.1448553378	an id
0.1448504922	the proposed neural network
0.1448456767	good candidates
0.1448402682	this paper studies
0.1448248230	at different levels of abstraction
0.1448213133	various traffic
0.1448153468	system failures
0.1447978987	set of sensors
0.1447871713	much larger than
0.1447806639	to fuse
0.1447793038	project 3gpp
0.1447730815	the soil moisture
0.1447654033	communications system
0.1447637976	management method
0.1447520604	seamless integration of
0.1447495932	small set
0.1447193278	a chain of
0.1447193278	and maintenance of
0.1447193278	the chance of
0.1447169750	approximability of
0.1447114606	the tractability
0.1446807454	allocated to
0.1446801208	suited to
0.1446690155	the short term
0.1446447424	preliminary numerical
0.1446350225	an odd
0.1446100622	directly related
0.1445754562	based on support vector
0.1445661903	the energy consumed
0.1445488271	numerical examples show
0.1445285421	the proposed method reduces
0.1445249641	the phy
0.1445216387	a controlled environment
0.1445184953	new insights
0.1445115096	this approach leads
0.1445089712	verified by
0.1444978306	every aspect
0.1444893114	integration of data
0.1444824378	the fault tolerant
0.1444353584	a web page
0.1444252802	in parallel on
0.1444228023	algorithm to perform
0.1444152111	improve upon
0.1443720194	a binary tree
0.1443492378	the humanoid robot
0.1443473147	a large population
0.1443392692	in light of
0.1442751305	the black box
0.1442714135	every pair
0.1442619264	processor dsp
0.1442506123	used to derive
0.1442313486	automatic evaluation of
0.1442305005	a key requirement
0.1442234537	a potential solution
0.1442212632	each processor
0.1442087296	an extension
0.1441911014	an artifact
0.1441632133	recognition rate of
0.1441619709	the performance of
0.1441098455	advantages of
0.1441092305	the mobile phone
0.1441014707	a mapping of
0.1440984453	a multiple input multiple output mimo
0.1440960392	with ground truth
0.1440955793	combination of multiple
0.1440930238	confirmed by
0.1440877664	previous ones
0.1440665017	the surgeon
0.1440447827	images taken from
0.1440292708	a multi dimensional
0.1440128149	novel robust
0.1440062696	using data from
0.1440006842	lecture notes in
0.1439952901	thus avoiding
0.1439388251	systems operating in
0.1439297564	key advantage of
0.1439256297	system specification
0.1439245792	new possibilities
0.1439199259	an arbitrary
0.1439063488	transport system
0.1438932116	a viable solution
0.1438387509	no additional
0.1438324532	a dynamic programming algorithm
0.1438253759	conclusions about
0.1438225199	a promising approach
0.1438152134	the lens of
0.1438054196	1 x
0.1437845452	and scalability of
0.1437641163	study proposes
0.1437519913	to consolidate
0.1436727964	new method
0.1436666989	information from
0.1436512654	algorithm running
0.1436457276	asymptotic properties of
0.1436383118	model relies
0.1436261116	experimenting with
0.1436144990	accomplished through
0.1436025853	efficient usage of
0.1435852399	a very challenging task
0.1435820072	approach differs
0.1435689715	a multiagent system
0.1435605938	a predictive model
0.1435353640	good solutions
0.1435339409	network consisting of
0.1435317929	the global optimum
0.1435247858	the wavelet transform
0.1434928436	inherited from
0.1434859190	the conjugate gradient
0.1434844753	any prior knowledge
0.1434843772	to choose
0.1434804317	by examining
0.1434790416	a general technique
0.1434688476	the sample size
0.1434426558	methods to solve
0.1434391767	a japanese
0.1434144538	set of documents
0.1434020637	as soon as possible
0.1433900690	a probabilistic
0.1433707476	two steps
0.1433682221	a 90 nm
0.1433530630	relates to
0.1433372168	expensive and time
0.1433294417	a memetic
0.1433014707	and integrity of
0.1433014707	the guidance of
0.1432686368	easy to
0.1432615370	optimal control of
0.1432406115	scheme does not require
0.1432402639	in conjunction with
0.1432195769	1 2 n
0.1431848040	at different stages
0.1431652266	entire process
0.1431421423	a low dimensional
0.1431419276	networks with
0.1431350335	a handful of
0.1431166369	an item
0.1431162563	a high resolution
0.1431137101	hardware architecture for
0.1431014707	a layer of
0.1430985062	the proposed filter
0.1430757962	faced with
0.1430651357	rapid prototyping of
0.1430593098	accompanied with
0.1430544880	elicited by
0.1430531876	in 65nm cmos
0.1430518304	detection in wireless
0.1430473595	features derived from
0.1430247290	but rather
0.1430200126	the proposed method performs
0.1430064827	on time scales
0.1429854544	to further reduce
0.1429849042	founded on
0.1429232448	number of links
0.1429217018	the most fundamental
0.1429066312	model of
0.1428622481	the paper develops
0.1428538307	a single cell
0.1428498068	controlled by
0.1428433591	the maximum likelihood
0.1427921535	an efficient method
0.1427468599	an approximate
0.1427321391	used to represent
0.1427260024	given to illustrate
0.1426937978	new closed form
0.1426913826	the number of
0.1426554725	dealing with large
0.1426516803	great potential for
0.1426232570	collected from
0.1426196760	the experimental results demonstrate
0.1426162166	the volatility
0.1426099518	studies focus
0.1426031315	system performance
0.1425950745	bit error rate of
0.1425915423	compared with other methods
0.1425901923	method to measure
0.1425860908	important classes of
0.1425794506	the euclidean
0.1425750150	information obtained from
0.1425282407	the same time
0.1424647799	the workshop
0.1424647221	inspired algorithm
0.1424615415	easier to use
0.1424608320	the ms
0.1424358444	able to
0.1424270930	for solving nonlinear
0.1424249685	time axis
0.1424166656	semantic annotation of
0.1424091723	good accuracy
0.1423850973	1 n
0.1423713432	complex interactions between
0.1423340879	the current version
0.1423272394	the de facto
0.1423255889	queries against
0.1423212946	a non parametric
0.1423065400	as far as
0.1422663329	models based on
0.1422595560	control in wireless
0.1422570053	contact between
0.1422404985	the fine grained
0.1422172672	small enough
0.1422149912	the giant
0.1422125966	model checker for
0.1422006824	a difficult problem
0.1421950880	coincide with
0.1421866977	modeling and analysis of
0.1421849920	the last two decades
0.1421813030	few seconds
0.1421589889	take account of
0.1421275972	a haptic device
0.1420924855	the adjacency matrix
0.1420903846	a recurrent neural network
0.1420682420	domain method
0.1420593552	as close as possible
0.1420181510	number of active
0.1420010898	to design
0.1419986720	important advantage
0.1419652615	an analytical
0.1419311841	a business model
0.1419162599	high classification
0.1419106058	driven approach to
0.1419095028	an interactive system
0.1419063815	used to construct
0.1418932116	a long history
0.1418760348	a computable
0.1418721258	an entire
0.1418486703	15 times
0.1418337967	from time to time
0.1418315406	widely used technique
0.1418293628	term traffic
0.1418218015	realistic network
0.1418135673	based methods for
0.1418131073	owned by
0.1418119752	the target
0.1417908740	a first step
0.1417902540	thereby making
0.1417897427	1 g
0.1417525078	an important step towards
0.1417504058	for on demand
0.1417488246	level architecture
0.1417479776	the second case
0.1417467130	the research community
0.1417465221	the cartesian
0.1417349771	by leveraging
0.1417315508	able to perform
0.1417193278	an account of
0.1417193278	a copy of
0.1417162484	this paper reviews
0.1417143846	a support vector machine svm
0.1417008513	automatic analysis of
0.1416787035	in order to create
0.1416787006	the most reliable
0.1416706524	an exemplary
0.1416459794	a cable
0.1416324936	to encode
0.1416295546	an expert
0.1416176005	wide class of
0.1416097425	recent approach
0.1415928930	3d motion
0.1415725533	estimated from
0.1415649261	to organize
0.1415629810	the design of
0.1415588691	to foster
0.1415274212	to execute
0.1415218870	a robust
0.1415123287	the host image
0.1415077243	some extent
0.1415026527	to annotate
0.1414872625	existing results
0.1414639318	used to identify
0.1414356801	order differential
0.1414252802	the means for
0.1414045631	using ns 2
0.1413908126	particularly relevant
0.1413904566	successful application of
0.1413861847	level feature
0.1413715793	an upper bound on
0.1413611085	important goal
0.1413509145	less energy
0.1413460250	the amygdala
0.1413406208	the jammer
0.1413392692	in relation to
0.1413374393	an improved particle
0.1413365503	thereby providing
0.1413047272	an essential step
0.1413014707	the place of
0.1413014707	and orientation of
0.1412945706	identification of
0.1412502863	to quantify
0.1412245505	do not scale well
0.1412198307	in order to simplify
0.1412176257	relate to
0.1411994437	solution algorithm
0.1411760350	comprehensive performance
0.1411728829	paid to
0.1411648397	one year
0.1411561459	mechanism based on
0.1411551994	three benchmark
0.1411385649	pull in
0.1411224410	an undergraduate
0.1411147451	a series of
0.1411127736	applied to identify
0.1411031580	notions of
0.1410975447	the needle
0.1410877139	the decision makers
0.1410778720	on top of
0.1410209814	dozens of
0.1410041624	the arabic
0.1409959746	believed to
0.1409835986	high coding
0.1409719020	for large scale data
0.1409601757	learning classifiers
0.1409253247	important classes
0.1409141387	1 s
0.1409081651	to publish
0.1408891029	a composite service
0.1408776416	to support collaborative
0.1408639219	special attention to
0.1408635197	10 2
0.1408499412	promising method
0.1408443441	method to optimize
0.1408106831	more or less
0.1408018749	well known benchmark
0.1407948966	a non linear
0.1407859183	complex 3d
0.1407821216	combinations of
0.1407812026	to submit
0.1407754304	complete design
0.1407668428	applications such as
0.1407623669	an attractive
0.1407596010	not complete
0.1407584868	theoretical aspects of
0.1407460978	fast computation of
0.1407055134	of noise on
0.1406970370	a few minutes
0.1406836597	design method for
0.1406752947	layer network
0.1406686655	a series of experiments
0.1406602648	the singular value decomposition
0.1406595028	compared with standard
0.1406208679	number of rules
0.1406044726	range of parameters
0.1406011614	creativity in
0.1405935376	a semantic web
0.1405745349	to differentiate
0.1405629810	the quality of
0.1405443181	each member
0.1404743049	each word
0.1404689142	a single processor
0.1404455343	to control
0.1404252802	the article also
0.1404252802	the parallelism of
0.1404252802	and variance of
0.1404161058	to help students
0.1404123762	algorithm to select
0.1404009610	promising technology
0.1403991171	increasing amount of
0.1403843403	recognized as
0.1403369717	based on color
0.1403191686	broad spectrum of
0.1403076041	factors such as
0.1403028919	serious threat
0.1402930557	optimal feature
0.1402727159	a large set of
0.1402612270	comparative evaluation of
0.1402542533	the co occurrence
0.1402516639	a smart home
0.1402440181	not just
0.1402321391	used to measure
0.1402299714	stabilisation of
0.1402264293	test cases from
0.1402107423	but not necessarily
0.1401902555	problem faced
0.1401900154	to synthesize
0.1401897807	control mac protocols
0.1401894894	suitable for
0.1401601332	underestimation of
0.1401583928	large state
0.1401417482	over frequency selective fading
0.1401265032	and flexibility of
0.1401104438	approach to construct
0.1400662386	the requirement to
0.1400491111	the british
0.1400258204	of crucial importance
0.1400257624	and hence to
0.1400153970	very compact
0.1400137413	experienced by
0.1399982150	images taken
0.1399862688	supplemented with
0.1399841486	ratio psnr
0.1399760845	1 e
0.1399611910	does not depend on
0.1399552552	a multi level
0.1399401089	number of measurements
0.1399331059	proposed to provide
0.1399207368	exponential growth in
0.1399169574	the e government
0.1398950112	small numbers of
0.1398772894	proposed designs
0.1398412792	a single user
0.1398154724	used to analyze
0.1398141978	radio based
0.1397816124	first step
0.1397759974	as fast as
0.1397705934	to combat
0.1397549034	considerable amount of
0.1397500422	a bayesian
0.1397133092	significant improvement in
0.1396693278	the only way
0.1396501708	world examples
0.1396445000	three orders of magnitude
0.1396428406	more and more
0.1396329238	the most popular
0.1396041415	model to support
0.1395860362	a brief overview
0.1395814191	the next hop
0.1395786525	further improvement
0.1395764707	in respect of
0.1395717936	system throughput
0.1395545954	controlled environment
0.1395380643	new concept
0.1395255529	present paper
0.1395242697	intensive task
0.1394932928	an autonomous
0.1394890745	minimum number
0.1394882545	joint estimation of
0.1394651288	superiority over
0.1394624999	each link
0.1394591126	to ascertain
0.1394381936	the presence of noise
0.1394318135	different topologies
0.1394284911	facto standard for
0.1394259400	the spirit
0.1394252802	and depth of
0.1394133718	great impact on
0.1394086196	to satisfy
0.1393918006	finite set of
0.1393593583	by modifying
0.1393502643	the model parameters
0.1393477133	a peer to peer p2p
0.1393460498	to construct
0.1393297150	the first layer
0.1393036804	one day
0.1392672856	demonstrated through
0.1392606279	similarities among
0.1392591679	distributed algorithm for
0.1392579719	the cross correlation
0.1392514338	methods for
0.1392445428	optimal allocation of
0.1392412254	approach to address
0.1392272725	bound algorithm
0.1392258407	feeling of
0.1392225213	to guarantee
0.1392095120	rapid increase in
0.1392075592	to decompose
0.1392032354	tested whether
0.1392025333	the k nearest neighbor
0.1391500158	level of quality
0.1391486055	a classification scheme
0.1391428359	a graphical
0.1391220488	set of services
0.1391204694	level of performance
0.1390765747	group g
0.1390637471	a generalised
0.1390574103	more likely
0.1390252502	small values of
0.1390193278	a subject of
0.1390084256	grade of
0.1390056239	length at most
0.1389858503	based cross
0.1389784658	superior to
0.1389377998	better approximation
0.1389252802	in terms of time and
0.1389203618	a cost function
0.1389197586	results obtained with
0.1388978696	looks at
0.1388963334	system gps
0.1388764530	present preliminary
0.1388541362	original problem
0.1388368017	approach for improving
0.1388273048	a virtual environment
0.1388188118	perceptual quality of
0.1388065438	based on multi
0.1387298280	the use of
0.1387294643	up to 10
0.1387271287	by comparing
0.1387228248	paper illustrates
0.1386996465	a hierarchical structure
0.1386645804	practical algorithm
0.1386621369	method achieved
0.1386619409	gain insights
0.1386426839	many scientific
0.1386338750	of supply chain management
0.1386195264	an acoustic
0.1385921950	the current
0.1385856655	particularly difficult
0.1385764707	under conditions of
0.1385764707	the reach of
0.1385762278	by employing
0.1385651663	mediated by
0.1385597433	means to improve
0.1385305933	rate performance
0.1385293564	often encountered
0.1385178157	a novel routing
0.1385140009	by adopting
0.1385097486	proposed to select
0.1385062938	the stiffness
0.1384727908	more productive
0.1384620992	considered as
0.1384573134	concept of virtual
0.1384416830	main parameters
0.1384379807	this note
0.1384346266	details about
0.1384252802	the acceleration of
0.1384094167	data coming from
0.1384085331	willing to
0.1384067072	sensitive to
0.1384014707	a diversity of
0.1383803106	multiple types of
0.1383661363	the semiconductor industry
0.1383498047	a long term
0.1383237552	consists of multiple
0.1382854033	to allocate
0.1382785181	application of
0.1382677565	a large
0.1382431685	the stock market
0.1382353190	a mathematical model
0.1382209911	spanning tree of
0.1382135229	introduced to improve
0.1382126617	distributed denial of
0.1382117509	this reason
0.1381914113	average end
0.1381655919	low phase
0.1381469477	a real application
0.1381020423	control of multiple
0.1380698881	main approaches
0.1380311533	the expectation maximization algorithm
0.1380309975	temperature range of
0.1380225854	specified threshold
0.1380033548	the hidden layer
0.1380021332	the elliptic curve
0.1379981841	tested on real
0.1379803224	failure time
0.1379754570	information in order
0.1379725213	to exploit
0.1379633633	propose to apply
0.1379581771	the cost function
0.1379482732	a formal semantics
0.1379326644	to empower
0.1379280458	make use of
0.1379189905	see if
0.1379128325	during and after
0.1379072005	a particle swarm optimization
0.1379009552	the control performance
0.1378817613	a sensor node
0.1378746227	an instance
0.1378745806	in urban areas
0.1378516224	framework for reasoning
0.1378502863	to monitor
0.1378191196	in terms of classification accuracy
0.1378065866	does not guarantee
0.1378006783	tool for
0.1377906356	to automatically detect
0.1377885586	the assistance of
0.1377836650	conditioned on
0.1377754130	the problem of determining
0.1377488246	linear state
0.1377456610	other languages
0.1377435523	proposed to evaluate
0.1377362682	privacy protection in
0.1377292131	a multitude of
0.1377280998	a grid
0.1377001951	a tabu
0.1376841931	the case of
0.1376397394	a fast algorithm
0.1376363042	in dynamic environments
0.1376151468	in order to reach
0.1375974744	more reasonable
0.1375868232	reduced number of
0.1375743607	first international
0.1375683855	the total
0.1375683855	the average
0.1375670954	as well as
0.1375632883	m cmos technology
0.1375517246	about 30
0.1375235446	validated by
0.1375207866	any fixed
0.1375135701	of p systems
0.1375019029	computationally very
0.1375005078	a novel evolutionary
0.1374895078	achieved through
0.1374823308	cr system
0.1374816110	two parties
0.1374705572	an asymptotic
0.1374668395	understanding of
0.1374633143	the second order
0.1374291944	promising candidate for
0.1374014707	a spectrum of
0.1373868767	still image
0.1373821012	this class of problems
0.1373783540	participate in
0.1373771435	computer simulation results
0.1373770502	data stored in
0.1373759571	less sensitive to
0.1373737520	without resorting
0.1373481165	set s
0.1373464154	systems based on
0.1373393173	up to now
0.1373295789	an important topic
0.1373206374	colouring of
0.1373126736	very quickly
0.1373109986	algorithm for automatic
0.1373062683	minimizing energy
0.1372955371	to collect
0.1372859941	block error
0.1372597825	three layers
0.1372539464	global stability of
0.1372352968	a firewall
0.1372081562	different types of
0.1371950474	systems consisting
0.1371641915	the main challenge
0.1371624036	suggested method
0.1371353979	propose to extend
0.1371328289	used to evaluate
0.1371185043	an explicit
0.1371144015	the mediating
0.1371132904	the receiver operating characteristic
0.1371115410	a third order
0.1371098204	a positive integer
0.1371085162	the mechanics of
0.1370802204	the top k
0.1370676032	mapped to
0.1370267288	approach to overcome
0.1370007144	approach increases
0.1369863189	this work proposes
0.1369839718	a pre defined
0.1369638675	this paper reports
0.1369453509	the basis of
0.1369252802	both performance and
0.1368872297	a bijection between
0.1368659864	authentication protocol for
0.1368645151	a rigid body
0.1368461978	bounded by
0.1368436020	growing interest in
0.1368218719	the destination
0.1368215355	a hidden markov model
0.1368050217	the magnetic field
0.1367881745	framework for learning
0.1367842638	the experimental result shows
0.1367714136	analogy between
0.1367662747	work flow
0.1367659162	a complex task
0.1367555987	approach consists in
0.1366960151	an exploratory study of
0.1366902915	the original data
0.1366894325	contained in
0.1366829494	an additive
0.1366683985	an evaluation study
0.1366675731	a set of
0.1366565143	become more and more important
0.1366507624	a scheme to
0.1366360714	mean time
0.1366178411	the ground state
0.1366009579	considered here
0.1365929546	a note on
0.1365905351	vertices x
0.1365886966	of trust in
0.1365808507	equivalence classes of
0.1365787751	introduced by
0.1365662386	between normal and
0.1365605950	empirical evaluation of
0.1365572446	the mas
0.1365546964	fixed points of
0.1365519761	distance between two
0.1365498449	dedicated to
0.1365336196	to guide
0.1365252379	about 10
0.1365244544	numerical evaluation of
0.1364981983	within and across
0.1364739286	a continuation
0.1364707935	a programming language
0.1364601599	an attack
0.1364600132	high prediction
0.1364350657	lack of information
0.1364180652	2 5
0.1364124781	an integrated system
0.1363829506	the sake of
0.1363818966	the new approach
0.1363803352	resource allocation for
0.1363778596	number of paths
0.1363647621	needed in order
0.1363628939	very similar
0.1363475097	the adversary
0.1363452530	an optical
0.1362579053	of information between
0.1362438551	a large class of
0.1362225213	to establish
0.1362117116	performed by
0.1362061815	the desired
0.1362038645	the right hand side
0.1362030580	in polynomial time for
0.1361996175	rate of convergence of
0.1361897134	the l1
0.1361864500	the first level
0.1361734658	special cases of
0.1361592266	attack on
0.1361493240	number of concurrent
0.1361421882	the greek
0.1361379400	such attacks
0.1361271182	the convenience of
0.1361248635	amount of memory
0.1361237133	main source
0.1360971542	most time consuming
0.1360966736	different color
0.1360922874	method proposed by
0.1360882849	the interference power
0.1360788702	widely applied in
0.1360754696	many real life
0.1360682660	in order to support
0.1360622507	concept of fuzzy
0.1360587683	set of objects
0.1360398692	control strategy for
0.1360335022	powerful approach
0.1360226890	mimo orthogonal
0.1360115586	the compressed domain
0.1360041416	appears to
0.1359941294	a support vector machine
0.1359923190	users to select
0.1359922265	set of paths
0.1359693278	a useful and
0.1359642862	the price of anarchy
0.1359557722	statistical analysis of
0.1359135586	in part by
0.1358941248	the embedding of
0.1358941248	the clustering of
0.1358916191	a concise
0.1358862631	satisfying certain
0.1358788250	an application specific
0.1358728254	the symmetric group
0.1358725095	convex hull of
0.1358520053	an indispensable
0.1358174819	multimedia subsystem
0.1357890218	the image
0.1357757565	a practical method
0.1357677925	the square root
0.1357344202	principled way
0.1357231287	the presence of
0.1357060580	presented to solve
0.1356876120	a three dimensional
0.1356764995	a wiki
0.1356719311	five times
0.1356716008	add value
0.1356609532	a model driven development
0.1356562683	rate variability
0.1356438368	algorithm combining
0.1356393609	large number of nodes
0.1356300663	delivery system
0.1356292592	the problem of estimating
0.1356291840	the power law
0.1356095985	other vehicles
0.1355976196	degree of
0.1355854774	general method
0.1355719446	analysis simulation
0.1355672590	simple technique
0.1355503862	both real and synthetic
0.1355392989	model trained
0.1355373633	able to cope with
0.1355236638	a new efficient
0.1355137413	explained by
0.1355090434	a network
0.1355046574	by adjusting
0.1354789909	one key
0.1354755323	high packet
0.1354737886	the mn
0.1354672563	number of cells
0.1354558037	regulated by
0.1354546547	an election
0.1354358401	method leads
0.1354251319	a fuzzy based
0.1353840848	in order to generate
0.1353768854	partly due to
0.1353616995	growing amount of
0.1353516372	nash equilibrium of
0.1353444953	sufficient condition for
0.1353284523	rapid development of
0.1353181672	a high order
0.1353152057	proposed to extract
0.1353098060	the training data
0.1353050978	performance advantages
0.1352964309	to elucidate
0.1352807964	to isolate
0.1352691817	for use by
0.1352649776	extremely well
0.1352423684	ability to
0.1352339429	stabilization of
0.1352246467	to hide
0.1352094531	an abstract
0.1352082678	optimization algorithm based on
0.1352014707	the advance of
0.1351991390	detected by
0.1351792839	to evade
0.1351552023	complex optimization
0.1351384898	a given query
0.1351341228	connected to
0.1351242144	a multi touch
0.1351185365	the proposed system
0.1351048161	useful in many
0.1351040224	this research
0.1350946490	very successful
0.1350938343	a multilingual
0.1350738493	computer vision applications
0.1350642622	quality of
0.1350631258	proposed to avoid
0.1350567227	while meeting
0.1350503380	gathered from
0.1350435377	to measure
0.1350404889	integration of multiple
0.1350337455	consistent with
0.1350299887	other robots
0.1350288515	required to provide
0.1350083616	time division multiple
0.1349902639	as long as
0.1349874796	a mediator
0.1349857640	allows students to
0.1349823112	starts from
0.1349813008	a major problem
0.1349811574	an actor
0.1349708651	the search process
0.1349433050	fault tolerance of
0.1349252802	different models of
0.1349155915	compiled into
0.1349086326	enabling technology for
0.1348924144	comparisons with other
0.1348795064	posed problems
0.1348552567	3 n
0.1348468441	the ve
0.1348321869	an asymmetric
0.1348269725	discriminative training of
0.1348265320	to buy
0.1348176189	derive closed
0.1348091959	proposed heuristics
0.1348085027	satisfy certain
0.1348036353	very efficient
0.1348007711	presented herein
0.1347727455	adoption of e
0.1347638125	arises from
0.1347637844	performance computing systems
0.1347340726	similarity measure for
0.1347340614	the maximum likelihood estimation
0.1347326166	proposed in
0.1347304444	four key
0.1347221884	runs in time
0.1347176256	a multi criteria
0.1347159629	this upper bound
0.1347014707	a means to
0.1347013350	an intuitionistic
0.1346900416	design for
0.1346798618	simulations to evaluate
0.1346791425	the cell cycle
0.1346760109	characterized by high
0.1346406417	used to simulate
0.1346362404	a significant portion of
0.1346211971	standard web
0.1346178694	an argumentation
0.1346092600	decomposition into
0.1345983250	statistical characteristics of
0.1345840253	statistical significance of
0.1345694879	control algorithm based on
0.1345692818	method to evaluate
0.1345670256	used to model
0.1345565400	as much as possible
0.1345488772	statistical distribution of
0.1345327413	each row
0.1345267025	to capture
0.1345155835	approach to increase
0.1345052115	proposed controller
0.1345007120	from s to
0.1344941278	model built
0.1344930056	recorded during
0.1344636332	desired level of
0.1344594084	proposed to determine
0.1344471017	portion of
0.1344312559	a hamiltonian cycle
0.1344167767	continuous monitoring of
0.1344149862	features finally
0.1343785621	not well suited
0.1343763124	to distribute
0.1343515606	number of constraints
0.1343511823	well adapted
0.1343381997	used to extract
0.1343340958	example of such
0.1343149948	the channel state information csi
0.1342996556	at infinity
0.1342920895	a new design
0.1342857695	classified into two
0.1342848024	transition between
0.1342846985	clearly defined
0.1342691626	defined in terms of
0.1342689799	a granular
0.1342579053	between source and
0.1342431745	paths between
0.1342266789	time constant
0.1342252802	the methodology used
0.1342081562	a variety of
0.1342027165	the receiver
0.1341892706	1 p
0.1341879527	a hypergraph
0.1341861424	to fully understand
0.1341844736	a new
0.1341641916	too difficult
0.1341539246	the most salient
0.1341511490	to judge
0.1341382633	function finally
0.1341263245	in part to
0.1341130037	scale images
0.1341105467	to connect
0.1341059582	each packet
0.1341056590	the wireless channel
0.1341036044	novel mechanism
0.1340984349	environment changes
0.1340944206	seen as
0.1340902887	a preprocessing step
0.1340777061	in order to mitigate
0.1340577299	this case study
0.1340574305	approach to build
0.1340564620	the development of
0.1340415709	few years
0.1340325212	a wide variety of
0.1340187078	does not involve
0.1340106027	the proposed approaches
0.1340013245	in place of
0.1339786256	to explore
0.1339696811	scheme in wireless
0.1339681996	description of
0.1339564317	a self adaptive
0.1339470741	by incorporating
0.1339453509	a class of
0.1339448900	total execution
0.1339353820	lies in
0.1339252802	a cycle of
0.1339025312	the posterior probability
0.1338989927	number of features
0.1338793396	performance compared to
0.1338789988	proposed to minimize
0.1338764707	and heterogeneity of
0.1338754499	each query
0.1338719558	the ith
0.1338615088	provide better performance
0.1338342853	does not need
0.1338300007	energy consumption by
0.1338247550	perceived ease of
0.1338122457	larger number
0.1338076499	this drawback
0.1337996953	tens of
0.1337925731	the first time
0.1337921542	in order to discover
0.1337884018	queueing system with
0.1337836196	to incorporate
0.1337549307	technology to support
0.1337361597	fully polynomial time
0.1337349548	automated analysis of
0.1337284134	competitive ratio of
0.1337231048	2 3
0.1337015532	exacerbated by
0.1336975016	energy consumption in
0.1336898555	proposed to optimize
0.1335980790	a second step
0.1335976347	model requires
0.1335959350	shift algorithm
0.1335683855	the maximum
0.1335412854	approach to evaluate
0.1335350728	mining tools
0.1335303765	an online learning
0.1334963744	analytical expression of
0.1334858097	particularly important
0.1334814656	number of objects
0.1334709668	in wireless multihop
0.1334585427	fixed number of
0.1334529420	the blogosphere
0.1334460092	a minimum cost
0.1334431258	method to derive
0.1334400427	development of mobile
0.1334248519	the public sector
0.1334209246	an iterative process
0.1334002056	by combining
0.1333939339	approach to compute
0.1333929730	an api
0.1333790696	two distinct
0.1333680034	added to
0.1333660397	technique for
0.1333635427	accounting for
0.1333629877	ranked according to
0.1333504837	still lack
0.1333431080	control method for
0.1333379667	any node
0.1333201966	to clarify
0.1333087258	split into two
0.1333041092	the health care
0.1332947130	time complexities
0.1332679395	the source code
0.1332581722	an ac
0.1332546323	cartesian product of
0.1332526974	the low frequency
0.1332292070	emitted by
0.1332286429	combination of
0.1332252802	the presented work
0.1332100907	the l2 norm
0.1332057870	more than
0.1331934004	proposed by
0.1331919248	specific problem
0.1331890557	variety of applications
0.1331849820	the electric field
0.1331833312	the transport layer
0.1331676187	much better than
0.1331638495	the long range
0.1331603056	relatively high
0.1331358581	an interval type
0.1331355346	the most significant
0.1331308973	scales well
0.1331258760	sum rate of
0.1331257067	observability of
0.1331195987	telecommunications system
0.1331154270	minimum set of
0.1331070394	put into
0.1331053752	the mean square error mse
0.1330888044	results clearly show
0.1330856780	integrate information
0.1330633506	information obtained
0.1330223940	probability density function of
0.1330013245	and manipulation of
0.1329991581	very promising results
0.1329989805	each stage
0.1329949409	development and application of
0.1329729077	succeeded in
0.1329634748	communication complexity of
0.1329607162	for real world applications
0.1329603493	in term of
0.1329487672	a substantial improvement
0.1329407966	the de facto standard
0.1328897367	at least as good
0.1328716023	tolerant routing
0.1328608353	created by
0.1328597066	commonly referred to
0.1328567997	developed to identify
0.1328509103	common problem
0.1328377442	substituted by
0.1328319947	framework for distributed
0.1328270502	the effect of
0.1328216191	broader range of
0.1328126166	reduction in energy
0.1327944693	in accordance with
0.1327938713	less accurate
0.1327933270	alternative approach
0.1327622642	5 times
0.1327341316	useful properties
0.1327327979	great importance for
0.1327276339	significant interest
0.1327049383	the cumulative distribution function
0.1326848322	good generalization
0.1326837026	prepared by
0.1326784733	the phase noise
0.1326769913	to orchestrate
0.1326758831	the target domain
0.1326675572	the number of nodes
0.1326617588	a novel concept
0.1326491598	database consisting of
0.1326374747	an energy function
0.1326255123	spatial distribution of
0.1326235069	error prone and
0.1326122406	method to model
0.1326058577	negative impact of
0.1326034104	the sink
0.1325902558	illustrated via
0.1325806675	efficient processing
0.1325616497	highly depends on
0.1325563802	the discrete cosine transform
0.1325378747	translate into
0.1325378559	built in
0.1325173748	the simulation results
0.1325137413	managed by
0.1325072875	the skull
0.1325063820	modelled by
0.1324829326	algorithm proposed by
0.1324726059	more robust
0.1324507473	an audio
0.1324491789	hardware support for
0.1324403663	basic data
0.1324362397	each transmitter
0.1324329009	the optical flow
0.1323628097	the wavelet domain
0.1323556148	specific type
0.1323534242	context of use
0.1323531185	cross over
0.1323516260	a high fidelity
0.1323402672	t i
0.1323318682	the time domain
0.1323283774	coherence between
0.1323220423	subset of nodes
0.1323212992	a global view
0.1323192069	transferred to
0.1322843966	a dual
0.1322782995	a necessary step
0.1322688251	time to time
0.1322604331	very simple
0.1322517083	general technique
0.1322369873	estimation based on
0.1322356562	the cross layer
0.1322308035	reflections on
0.1321991879	a wide range of
0.1321966754	questions related to
0.1321933691	an experiment
0.1321925815	in order to perform
0.1321861910	by virtue of
0.1321797468	a meta model
0.1321656002	numerical approximation of
0.1321631194	method performs better
0.1321585428	confluence of
0.1321480736	images containing
0.1321437954	by utilizing
0.1321435181	obtain higher
0.1321397692	during run time
0.1321354956	proposed to facilitate
0.1321308256	the evolutionary process
0.1321303412	in proportion to
0.1321207277	the proposed hybrid
0.1321096301	to personalize
0.1320986814	the bit error rate ber performance
0.1320869690	lots of
0.1320758086	each vehicle
0.1320558449	algorithms for multi
0.1320549348	the case study
0.1320423324	a hybrid genetic algorithm
0.1320418765	the em algorithm
0.1320357292	an action
0.1320258193	identification based on
0.1320183707	the recent past
0.1320154005	other users
0.1320034942	a simple technique
0.1320013245	a contribution to
0.1319916335	the high frequency
0.1319786256	to represent
0.1319752722	the probability density function
0.1319724544	of fundamental importance
0.1319644015	the ekf
0.1319503640	automatic recognition of
0.1319454124	of cooperation in
0.1319453509	the importance of
0.1319413061	and error prone
0.1319392213	consensus among
0.1319383001	types of networks
0.1319095611	an interesting
0.1319086196	to validate
0.1319080034	effective design
0.1319028304	algorithm for learning
0.1318995071	performance per
0.1318493180	number of papers
0.1318358223	a mixed integer
0.1318192975	developed to address
0.1318165167	in order to satisfy
0.1318123869	used to illustrate
0.1318028638	specific modeling
0.1318013859	does not contain
0.1317572393	method experimental results
0.1317558942	automatic identification of
0.1317499317	set x
0.1317336703	more favorable
0.1317282065	in front of
0.1317216871	least squares support
0.1316976681	the discrete fourier transform
0.1316821230	objects of interest
0.1316812874	a class of uncertain
0.1316715330	used to define
0.1316676375	between two consecutive
0.1316668380	systems with limited
0.1316630589	available channels
0.1316603201	order differential equations
0.1316588813	used to assess
0.1316408659	the pore
0.1316177252	a ground truth
0.1315933510	the experimental results
0.1315740809	critical problem
0.1315629810	the problem of
0.1315589174	number of labeled
0.1315584302	a small set of
0.1315579800	to compose
0.1315540892	current study
0.1315506679	a two dimensional
0.1315264349	a random sample
0.1315118476	model checking of
0.1315101671	to enrich
0.1315038629	the core idea
0.1314926899	a virtual world
0.1314710254	main difference
0.1314675507	issues related
0.1314670961	the power supply
0.1314633143	the first order
0.1314517295	the base layer
0.1314220282	interacting with
0.1314017303	power allocation for
0.1313749835	a means for
0.1313701134	by way of
0.1313249789	energy efficiency in
0.1313232111	widespread use
0.1313119589	an average
0.1313080903	new challenges
0.1313054175	while reducing
0.1312622314	interesting research
0.1312579965	types of data
0.1312493451	an international
0.1312377316	further development
0.1312085161	method does not require
0.1312060069	operated at
0.1312033267	a new class of
0.1311837841	itemsets from
0.1311819190	proposed to measure
0.1311697347	a formal
0.1311601755	the world
0.1311228765	new methods
0.1311179683	latter case
0.1311021656	processes involved
0.1311015156	in order to assist
0.1310948126	to analyze
0.1310570268	greater number of
0.1310564620	the role of
0.1310564620	the impact of
0.1310433693	the main difference
0.1310368058	an organization
0.1310355345	essential step
0.1310353775	in unstructured environments
0.1310339333	an electronic
0.1310318074	good trade off between
0.1310008708	novel concept
0.1309967720	this regard
0.1309766594	scale simulation
0.1309765493	an emergency
0.1309743432	meaningful way
0.1309714008	served by
0.1309638915	sensing system
0.1309605329	each neuron
0.1309535962	distributed across
0.1309524614	proposed to handle
0.1309501612	a fixed number
0.1309496109	provided to show
0.1309414208	method for multi
0.1309384961	to infinity
0.1309343414	number of parameters
0.1309335188	each sub
0.1309324988	the anatomy
0.1309319006	load among
0.1309178971	proportion of
0.1309008936	an industrial
0.1309001134	potential solution
0.1308945864	restricted to
0.1308740761	a promising technique
0.1308719887	a fusion center
0.1308647845	the 21st
0.1308575622	a special kind
0.1308238647	the fault tolerance
0.1308236659	the story
0.1308170954	with or without
0.1308167952	the self organizing map
0.1308158340	a multi agent
0.1308149601	while ignoring
0.1308125891	a novel heuristic
0.1308007871	lower and upper bounds on
0.1307887891	further refined
0.1307885907	the right hand
0.1307863176	galerkin method for
0.1307814866	commonly known as
0.1307729541	however in many
0.1307675542	number of peers
0.1307630103	very satisfactory
0.1307487086	the computational complexity
0.1307478113	a multi objective optimization
0.1307391269	an intermediate
0.1307342389	1 approximation
0.1307041434	a high throughput
0.1305986042	types of applications
0.1305792540	proposed to generate
0.1305463441	important aspects of
0.1305377774	behavior of
0.1305018197	new version
0.1304937663	a constant number of
0.1304928436	indistinguishable from
0.1304790169	preserved under
0.1304757324	the knowledge base
0.1304411296	the middle
0.1304346848	on synthetic and
0.1304210499	the closed loop system
0.1304176998	a cognitive
0.1304162770	rate compared
0.1304040944	levels of
0.1303947041	high detection
0.1303832973	set of metrics
0.1303820756	well suited to
0.1303749835	as high as
0.1303645409	a fourth order
0.1303609060	a small constant
0.1303500858	difficult to use
0.1303422725	very good
0.1303374189	new emerging
0.1303242268	et al j
0.1303128313	the performance
0.1302924319	a comprehensive
0.1302778544	navigate through
0.1302595095	good tradeoff between
0.1302392287	a useful tool
0.1302375862	the primal
0.1302254673	the tsp
0.1302252802	different patterns of
0.1302249789	generation of test
0.1302190460	the former
0.1301784935	in cognitive radio systems
0.1301569906	the level set
0.1301261172	three stages
0.1301226613	an educational
0.1301153940	by aligning
0.1301063718	in order to predict
0.1301028601	less than 1
0.1300831610	the main problem
0.1300657030	different species
0.1300564620	the efficiency of
0.1300564620	the influence of
0.1300483377	effective technique
0.1300401010	a non trivial
0.1300337193	and cons of
0.1300182811	operational semantics for
0.1300110706	in order to build
0.1300075217	under heavy
0.1300011853	performance improvements over
0.1299647755	improved performance over
0.1299526682	common understanding of
0.1299420332	the cartesian product
0.1299229444	802154 standard
0.1299074294	to collect data
0.1298961301	the most accurate
0.1298950150	thus enabling
0.1298898835	proposed formulation
0.1298801599	the channel
0.1298470943	outlier detection in
0.1298425411	applied to real
0.1298345253	unsuitable for
0.1298128568	the fourth order
0.1298095169	time saving
0.1297995180	each station
0.1297861866	of location based services
0.1297855863	the spine
0.1297727674	impact of
0.1297700628	quantitative evaluation of
0.1297573238	performance in terms of
0.1297474375	a decade
0.1297269913	to normalize
0.1297268253	abbreviated as
0.1297189444	kinds of information
0.1297058381	the size of
0.1297032301	compared to other
0.1296971407	order convergence
0.1296733186	the advent of
0.1296706006	number of inputs
0.1296688084	number of pixels
0.1296525634	in excess of
0.1296477644	computation techniques
0.1296289164	powerful technique for
0.1296253695	verify if
0.1295933922	loss at
0.1295922046	amount of energy
0.1295840518	robust fault
0.1295822934	matching between
0.1295808221	much higher than
0.1295732570	report on
0.1295662386	from source to
0.1295468317	protect against
0.1295431293	developed in order
0.1295380598	listen to
0.1295210365	computer hardware
0.1295204275	a message passing
0.1295065444	separated into
0.1294995159	empirical comparison of
0.1294772611	detailed performance
0.1294509200	the standard model
0.1294452729	very popular
0.1294333474	result in
0.1294303330	the leakage power
0.1294231795	propose to combine
0.1294165080	many real world
0.1294110923	each segment
0.1294063673	analysis to identify
0.1293998794	of wireless ad hoc networks
0.1293980476	linkage between
0.1293975228	robust stability of
0.1293476874	thus far
0.1293472015	network in addition
0.1293457687	definition of
0.1293437894	absence of
0.1293146049	better performance compared
0.1292983423	2 times
0.1292852103	the lane
0.1292818763	a complete solution
0.1292717969	framework to provide
0.1292591053	impact of process
0.1292355946	paper deals with
0.1292186962	a new routing
0.1292174114	developed to improve
0.1291941808	an untrusted
0.1291842519	the sensor nodes
0.1291837772	the west
0.1291835346	theoretic approach to
0.1291696800	from source to destination
0.1291420387	an efficient manner
0.1291358816	the human genome
0.1291315709	a ptas for
0.1291292592	the problem of designing
0.1291263191	a self organizing map
0.1291153605	synchronization among
0.1290764825	a multi view
0.1290730340	problem to solve
0.1290702151	project aims to
0.1290680160	to train
0.1290615354	comprehensive approach
0.1290589730	continues to
0.1290555604	the vr
0.1290421131	more flexible
0.1290377561	moving objects in
0.1290370388	a refinement of
0.1290370388	a question of
0.1290297749	to regulate
0.1290224602	to evolve
0.1290203034	by presenting
0.1290107515	path planning of
0.1290013245	a gain of
0.1289935310	method relies
0.1289822407	the life sciences
0.1289688312	each destination
0.1289603493	as low as
0.1289453509	the concept of
0.1289318945	further improvements
0.1289315354	new words
0.1288858741	the explosive growth
0.1288830737	the achievable rate
0.1288759933	given rise to
0.1288569280	a gold standard
0.1288481073	to tune
0.1288437398	the product line
0.1288435099	in wireless sensor networks wsn
0.1288415298	to manipulate
0.1288199923	data in addition
0.1288115910	a rigorous
0.1287955345	the victim
0.1287853787	an analytic
0.1287810261	the signal to interference
0.1287756069	yields better
0.1287737316	upper and lower bounds for
0.1287733941	performance of mobile
0.1287680016	scheme to achieve
0.1287672918	estimated by
0.1287643681	electronic system
0.1287641996	two consecutive
0.1287563174	the most interesting
0.1287419529	to combine
0.1287375608	a single sensor
0.1287369074	a user interface
0.1287358880	effect on
0.1287242474	a feed forward
0.1287222035	protocols based on
0.1287194224	a single phase
0.1287104810	study aimed to
0.1287004095	after introducing
0.1286872158	novel framework
0.1286807824	each customer
0.1286638885	knowledge discovery from
0.1286595694	support vector machine for
0.1286515153	analysis of complex
0.1286440897	decline in
0.1286385402	the deep web
0.1286269559	more than just
0.1286268020	the reference signal
0.1285967452	our approach consists
0.1285869623	each image
0.1285865531	expression levels of
0.1285864859	a single input
0.1285831419	the active site
0.1285705287	written by
0.1285508714	a novel robust
0.1285453700	accurate analysis
0.1285431839	approach to predict
0.1285378295	a much wider
0.1285267417	an alternating
0.1285234069	time duration
0.1285197594	each document
0.1285165999	loop control system
0.1285015660	the best previous
0.1284780088	the minimum energy
0.1284743233	the block length
0.1284561823	several advantages
0.1284506163	a necessary and
0.1284444082	proceedings of
0.1284347872	the means to
0.1284324722	the most critical
0.1284128389	information stored in
0.1284095717	the game
0.1283980746	contaminated by
0.1283934556	used to guide
0.1283844218	formal representation of
0.1283724956	various kinds
0.1283660249	as quickly as
0.1283497631	based on ontology
0.1283480101	analytical and simulation results show
0.1283403687	types of problems
0.1283397147	rate control for
0.1283347063	three classes of
0.1283064960	a vertex
0.1282777215	added services
0.1282508896	a web browser
0.1282495294	a novel feature
0.1282404865	a system level
0.1282336102	able to solve
0.1282220072	formal specification of
0.1282132080	the need for
0.1282096457	to inform
0.1282083011	communicates with
0.1282041003	system designs
0.1281819546	in supply chain management
0.1281703779	an e
0.1281650506	the knee
0.1281636844	an essential component
0.1281619653	to engage
0.1281608192	a case study using
0.1281343924	the object oriented
0.1281304361	one or more
0.1281265630	analysis to determine
0.1281197145	and forward relay
0.1281005843	a prototype implementation
0.1280979662	a simple algorithm
0.1280960536	a new computational
0.1280922947	propose to use
0.1280918710	trust between
0.1280863954	the crowd
0.1280813704	new kind
0.1280809518	to synchronize
0.1280766988	the probability density function pdf
0.1280697800	the minimum
0.1280635422	an accelerated
0.1280538235	approach to enhance
0.1280370388	and tested in
0.1280281441	does not change
0.1280061292	the original video
0.1279873153	user interfaces for
0.1279826779	kind of data
0.1279786419	the case
0.1279707841	few decades
0.1279703380	our results suggest
0.1279392421	novel scheme
0.1279244507	adjusted according to
0.1279021048	number of participants
0.1278941817	as efficient as
0.1278908659	the shield
0.1278600277	the actual
0.1278599955	very close to
0.1278477882	a connected graph
0.1278467397	technologies such as
0.1278434835	thereby increasing
0.1278373092	and then uses
0.1277965331	calculated by
0.1277912218	significant information
0.1277827225	variety of
0.1277825104	for multi user
0.1277785619	depending on whether
0.1277769551	increased interest
0.1277745747	world scenarios
0.1277554826	the input data
0.1277416561	natural generalization of
0.1277374277	comparison of
0.1277363123	the approach presented
0.1277226662	a defect
0.1277046654	compliance with
0.1277026443	time taken to
0.1276860564	a crucial task
0.1276857595	our analysis shows
0.1276810207	little work
0.1276723802	issued from
0.1276586196	to characterize
0.1276396389	between adjacent
0.1276282243	an abelian
0.1276091506	this issue
0.1275981703	an lmi
0.1275702379	the optimum
0.1275694438	information regarding
0.1275670175	general type
0.1275611789	important application
0.1275557842	the wall
0.1275516513	a novel
0.1275469250	a flash
0.1275450886	cater for
0.1275436016	applications such as video
0.1275300891	determination of
0.1275298013	a multilayer perceptron
0.1275174263	the user interface
0.1275027400	to enter
0.1274912608	a service based
0.1274880727	extensively used
0.1274809872	very hard
0.1274698750	used to record
0.1274579652	does not rely on
0.1274343878	the input voltage
0.1274299120	the euclidean distance
0.1274273668	study to investigate
0.1274095717	the object
0.1274093052	a fuzzy neural
0.1273978775	information extracted from
0.1273942283	users do
0.1273749835	in charge of
0.1273570790	rules in order
0.1273327601	after analyzing
0.1273082040	expressed by
0.1272983319	the secondary users
0.1272844715	amounts of
0.1272833180	with side information
0.1272554006	number of times
0.1272550644	other members
0.1272497259	spread function
0.1272477144	without changing
0.1272386285	a theoretical model
0.1272192214	channel impulse
0.1272133543	set of patterns
0.1272031961	a decidable
0.1272021384	the minimum number
0.1271932030	an organizational
0.1271548436	still open
0.1271482931	simulator based
0.1271353321	to share information
0.1271228479	first time
0.1271162400	a bit error rate
0.1271060478	three distinct
0.1271032993	approach to measure
0.1270997597	energy efficiency of
0.1270992932	store data
0.1270886632	present paper describes
0.1270694133	the channel condition
0.1270450894	a single node
0.1270370388	provides users with
0.1270370388	in parallel with
0.1270370388	as input to
0.1270207690	the syntax and
0.1270107764	voice over
0.1270104479	an adversarial
0.1270103297	the calculus
0.1269935672	the input
0.1269830044	flow time
0.1269442885	high false
0.1269435259	the average delay
0.1269367679	to compress
0.1269225558	often involve
0.1269179562	a dynamic bayesian network
0.1269097702	to inspect
0.1269061548	up to 15
0.1268964930	other countries
0.1268902618	as many as
0.1268897006	architecture based on
0.1268842923	emphasis on
0.1268733082	proposed control scheme
0.1268713282	the last section
0.1268686438	management scheme for
0.1268653544	brought about
0.1268596774	more and more popular
0.1268562238	deeper understanding of
0.1268247234	optimal selection of
0.1268049401	with application to
0.1268024475	without introducing
0.1267686089	comparable performance to
0.1267603235	method to perform
0.1267522518	np complete in
0.1267499543	the extent to
0.1267433749	efficient technique
0.1267306529	the system performance
0.1267290404	scale experiments
0.1267231287	the effectiveness of
0.1267060359	cause significant
0.1266950902	ease of
0.1266826243	proposed in 1
0.1266509426	the relay
0.1266496557	the study area
0.1266403581	first stage
0.1266353536	our approach combines
0.1266317396	used to test
0.1266257934	the primary
0.1266244291	very poor
0.1266226763	based on user
0.1266180806	life cycle of
0.1266102095	decision procedures for
0.1265998614	model to investigate
0.1265639139	presented to show
0.1265608185	the rotor
0.1265566410	the system
0.1265527230	3d spatial
0.1265526229	large body of
0.1265484668	this case
0.1265460935	the gold standard
0.1265460283	and future research directions
0.1265131144	scheme consists
0.1264964620	relevant to
0.1264912357	originally designed for
0.1264791507	one or several
0.1264774226	into several sub
0.1264724912	a network based
0.1264689798	more likely to
0.1264612576	numerical methods for
0.1264603493	with reference to
0.1264600768	a non invasive
0.1264514264	the network performance
0.1264458638	raised by
0.1264341655	very accurate
0.1264008291	the free energy
0.1263748207	detailed study
0.1263361910	reverse engineering of
0.1263128347	different operating conditions
0.1263119752	the conventional
0.1262955371	to adjust
0.1262858179	2 k
0.1262682471	two data sets
0.1262429912	as early as
0.1262391245	in order to save
0.1262110527	development of wireless
0.1262084121	information sharing in
0.1262072769	different components of
0.1261981315	distribution of data
0.1261838796	a complex network
0.1261807420	further investigations
0.1261759337	builds on
0.1261745567	an inner
0.1261735202	soft errors in
0.1261595334	the random walk
0.1261484505	the random oracle
0.1261447091	a common goal
0.1261375269	the signer
0.1261364689	suited for
0.1261321891	the current state of
0.1261205575	the last years
0.1261123705	sensors based on
0.1261082799	able to capture
0.1260933317	analytical expression for
0.1260501297	two stages
0.1260483740	a self organized
0.1260474726	mean values
0.1260259700	the user profile
0.1260227034	exhibited by
0.1260191940	susceptibility to
0.1260120224	number of observations
0.1259914423	a multi resolution
0.1259897774	a significant difference
0.1259848624	games with
0.1259806345	complexity of
0.1259779533	class of discrete
0.1259620818	the average case
0.1259431523	more secure
0.1259401346	system employing
0.1259359952	finally numerical
0.1259068284	the analytic hierarchy process
0.1258988897	varying systems
0.1258847946	the weighted sum
0.1258606736	an important contribution
0.1258596932	received much
0.1258529925	the secondary user
0.1258137575	with collision avoidance
0.1257918123	the application layer
0.1257875701	support users in
0.1257860026	algorithm to determine
0.1257821792	evolutionary algorithm based on
0.1257627898	system lifetime
0.1257381969	intelligibility of
0.1257225717	power management for
0.1257224408	supplied by
0.1257218316	proposed to identify
0.1257105405	the internets
0.1257040892	optimal point
0.1256969100	a small number of
0.1256808175	model checking for
0.1256665115	adapt to
0.1256590089	suffered from
0.1256330103	workings of
0.1256295292	our experimental results demonstrate
0.1256149728	without modification
0.1256049415	across heterogeneous
0.1256017351	number of independent
0.1255892803	more informative
0.1255833334	measured by
0.1255629810	the cost of
0.1255539209	to multipoint
0.1255536969	different priorities
0.1255306004	the influences of
0.1255027401	to comprehend
0.1254969595	and analyzed for
0.1254920038	scheduling scheme for
0.1254674996	powered by
0.1254659440	em algorithm for
0.1254520843	still missing
0.1254487270	design of wireless
0.1254429123	core system
0.1254347872	and recall of
0.1254265654	decoding algorithm for
0.1254077576	more than 100
0.1254001720	the network traffic
0.1253902618	and many other
0.1253773259	acceptability of
0.1253571704	generic method
0.1253484382	computer models
0.1253225845	gene expression in
0.1253206095	important to consider
0.1253167027	two groups
0.1253093950	different kinds of
0.1252832647	in next generation networks
0.1252740120	a high probability
0.1252710191	the self organizing
0.1252669394	contained within
0.1252338575	the bit rate
0.1252285470	a few hundred
0.1252232145	time courses
0.1252153902	the off line
0.1252112936	not aware of
0.1252095810	model to determine
0.1251891021	an optimistic
0.1251872802	control scheme for
0.1251814011	in depth analysis
0.1251787806	ofdm with
0.1251653582	at different levels
0.1251274913	research on
0.1251171915	the multicast tree
0.1250975415	an important and challenging
0.1250813408	user interaction with
0.1250749303	realization of
0.1250630054	flexible approach
0.1250422975	power consumption of
0.1250229862	an inverse
0.1250166243	model to improve
0.1250011201	number of machines
0.1249861216	detection of
0.1249741125	the social network
0.1249739090	new families of
0.1249588431	quality of information
0.1249478521	performance bounds for
0.1249454599	not so
0.1249453509	the aim of
0.1249257933	optimality conditions for
0.1249080664	highly correlated with
0.1249041217	a novel semi
0.1248992196	the open loop
0.1248833056	confined to
0.1248551407	the output voltage
0.1248170954	and then use
0.1248161857	a multiprocessor
0.1247947232	a trade off between
0.1247738581	high number
0.1247663012	considered as one of
0.1247612362	able to express
0.1247525667	very competitive
0.1247443931	no explicit
0.1247364467	the initial
0.1247358302	order to verify
0.1247265598	curation of
0.1247231287	a number of
0.1247214014	the cerebellum
0.1247209379	the reconstructed image
0.1247085383	tested on
0.1247068695	no clear
0.1247058381	the accuracy of
0.1247026663	the pupil
0.1246987525	the semi supervised
0.1246853746	the basic concept
0.1246834095	shown to demonstrate
0.1246773897	a dynamic environment
0.1246705702	to define
0.1246659166	application case
0.1246657859	an easy to use
0.1246651857	to attend
0.1246636259	an optimum
0.1246629881	classifier based on
0.1246498774	specific class
0.1246443502	test bed for
0.1246387391	approaches based on
0.1246342847	over nakagami
0.1246314064	accepted by
0.1246251397	2 s
0.1246224047	a complement to
0.1246086732	total network
0.1246055912	results compare
0.1245928695	some preliminary results
0.1245921604	both simulated and real data
0.1245788497	fixed amount
0.1245777303	the number of edges
0.1245629810	the process of
0.1245629810	the complexity of
0.1245425153	effective approach
0.1245218381	well designed
0.1245121104	an additional
0.1245026423	see whether
0.1244903986	the result shows
0.1244839452	a key point
0.1244803655	an optimization approach
0.1244792693	energy consumption while
0.1244603493	as shown in
0.1244571626	control problem for
0.1244486566	prediction of
0.1244392241	developed to evaluate
0.1244347699	the most common
0.1244340199	to decide whether
0.1244263217	a large number of
0.1244257432	dynamic contrast
0.1244133443	the link layer
0.1244093126	in network data
0.1243362936	go on to
0.1243325066	different classes
0.1243323851	computational results show
0.1243295789	an important requirement
0.1243258543	algorithm for optimal
0.1243203886	training time
0.1243076572	edge e
0.1243048960	as to whether
0.1242944403	effective tool
0.1242659403	each component
0.1242634148	novel video
0.1242537479	the dual of
0.1242468522	based denoising
0.1242429912	and simulated in
0.1242429912	and flexibility in
0.1242410989	multi way
0.1242207717	the netherlands
0.1241891825	in order to produce
0.1241837015	to investigate
0.1241827591	both analysis and
0.1241788436	the vector space model
0.1241783993	an independent set
0.1241706583	the front end
0.1241690839	both global and
0.1241690839	and easier to
0.1241690839	the coordinates of
0.1241585288	analysis performed
0.1241076845	operates at
0.1240618084	more stable
0.1240615658	images based on
0.1240555972	a fixed amount
0.1240299204	directly applied to
0.1240073937	of critical importance
0.1239983839	the opponent
0.1239866762	exists between
0.1239642021	detailed analysis of
0.1239471488	to dynamically adapt
0.1239453509	the existence of
0.1239453509	the field of
0.1239318632	a virtual
0.1239194726	development of software
0.1239106459	tool support for
0.1239039809	the proposed protocols
0.1238959888	a small fraction
0.1238875367	the two user
0.1238799556	an efficient solution
0.1238499668	problem because of
0.1238474012	the south
0.1238455343	this scheme
0.1237841552	the power spectral density
0.1237768123	an expressive
0.1237637806	low number
0.1237630586	data set of
0.1236823984	stored in
0.1236747353	a broad range of
0.1236600129	different media
0.1236504287	as good as
0.1236503196	very sparse
0.1236396851	the most prominent
0.1236373040	the main challenges
0.1236300652	algorithm to minimize
0.1236224047	without knowledge of
0.1236166389	acting on
0.1236069184	the optimization problem
0.1235880264	major drawback of
0.1235777061	in order to resolve
0.1235694052	a retailer
0.1235677269	a promising technology
0.1235644562	acquisition time
0.1235598228	computed by
0.1235593958	the liver
0.1235590833	paper tries to
0.1235550285	still far from
0.1235401807	different ways
0.1235156530	proven to
0.1234884054	supervised machine
0.1234858972	constrained multi
0.1234844773	a computer program
0.1234716704	other types
0.1234670440	four categories
0.1234669928	brings about
0.1234622038	to distinguish
0.1234370293	the eeg
0.1234311988	the recipient
0.1234216442	a general method
0.1233939071	more compact
0.1233879196	this limitation
0.1233844398	parallel execution of
0.1233842054	thus providing
0.1233809268	previously best known
0.1233747272	the input size
0.1233744882	costs associated with
0.1233711856	space based on
0.1233636732	evaluation results show
0.1233597649	efficient management
0.1233527733	correlate with
0.1233514801	an equilibrium
0.1233487416	a wearable
0.1233472152	efficient methods for
0.1233039207	three levels
0.1232985233	more difficult
0.1232955371	to preserve
0.1232755476	a proximity
0.1232744473	problem in
0.1232651164	approach to obtain
0.1232565188	in order to address
0.1232327650	the stator
0.1232298762	the spatial domain
0.1232202618	each subset
0.1232137413	assessed by
0.1232112936	as important as
0.1232050388	to collaborate
0.1232011227	three kinds of
0.1232009456	not appropriate for
0.1231877407	the non linear
0.1231876221	as large as
0.1231599329	an essential task
0.1231512017	mutual information between
0.1231437954	by analyzing
0.1231307832	formal verification of
0.1231279972	and then by
0.1231217022	good properties
0.1230995247	best choice
0.1230983567	maintained by
0.1230953956	watermarking scheme for
0.1230547086	development of
0.1230520142	sum of
0.1230370388	new techniques for
0.1230331599	to grasp
0.1230326234	control based on
0.1230257351	imposed on
0.1230160925	a project to
0.1230066768	time codes
0.1229816265	heuristics based
0.1229791063	popular approach
0.1229638651	an out of
0.1229629901	adjusted according
0.1229557876	a consequence
0.1229529540	method to build
0.1229480645	every user
0.1229478610	large multi
0.1229453509	a function of
0.1229326101	applied to design
0.1229222493	the design space
0.1229204371	this technique
0.1229096600	an accurate
0.1229011600	evaluated in terms of
0.1228950403	and real world data
0.1228941817	many problems in
0.1228841486	effect transistors
0.1228778026	the proposed metric
0.1228653821	the present work
0.1228216507	likelihood detection
0.1228102317	type of data
0.1228059871	important performance
0.1227982142	and identically distributed iid
0.1227640416	3d human
0.1227585513	real world applications in
0.1227537143	mechanical design of
0.1227519048	indicative of
0.1227464717	a previous paper
0.1227177594	to examine
0.1227026663	the tongue
0.1226906009	to disclose
0.1226894996	interaction with
0.1226800771	each object
0.1226760279	similarity between two
0.1226617680	capacity region of
0.1226565013	suitable for real time
0.1226422581	the total energy
0.1226099831	a simulated environment
0.1226045225	introduction to
0.1225899463	at last
0.1225742104	in order to estimate
0.1225635294	this purpose
0.1225364580	the composite service
0.1225319171	used to classify
0.1225315038	the high level
0.1225068143	the paper reports
0.1225012074	current trends in
0.1224842197	techniques based on
0.1224702565	an update
0.1224699565	investigates whether
0.1224693896	3d content
0.1224653422	simultaneous localization and
0.1224640662	a multi objective evolutionary
0.1224624183	the fitness function
0.1224610370	react to
0.1224589653	a system of systems
0.1224560216	computing system
0.1224461109	a matroid
0.1224437219	a reference model
0.1224435655	introduced in order
0.1224435023	the advanced encryption standard
0.1224288224	neural network with
0.1224284797	the near future
0.1224112886	a distributed algorithm
0.1224033482	a gradient descent
0.1223942748	achieving better
0.1223864836	the system level
0.1223716934	architecture consists
0.1223696607	important aspect of
0.1223453930	great value
0.1223373092	different from other
0.1223359201	design guidelines for
0.1223167500	algorithm to improve
0.1223109768	to survive
0.1223106208	acquired from
0.1223094836	discriminate between
0.1222988672	the proposed measure
0.1222681364	conveyed by
0.1222573090	a multicast
0.1222547609	to automatically extract
0.1222482602	the general public
0.1222429912	known results for
0.1222429912	both research and
0.1222246646	the traffic load
0.1222227773	best solution
0.1222043055	several examples
0.1221663586	the art results
0.1221606770	issues about
0.1221546248	few hundred
0.1221367962	our evaluation shows
0.1221283477	parameters such as
0.1221181060	a first step towards
0.1220897775	the most successful
0.1220724047	and then show
0.1220719363	selection of appropriate
0.1220638426	universe of
0.1220562917	a vital role
0.1220374619	interpretation of
0.1220374103	efficient use of
0.1220342781	used to compare
0.1220225552	the fixed point
0.1219968532	among members
0.1219961088	of anarchy
0.1219704640	a weighted sum
0.1219503576	the follower
0.1219444714	best case
0.1219275834	polynomial time algorithm for
0.1219268634	an orthogonal frequency division
0.1219243282	a recent study
0.1219052431	genetic algorithm based on
0.1218941817	as accurate as
0.1218801599	the source
0.1218733113	becoming more
0.1218649889	this demo
0.1218615012	in regards to
0.1218481073	to refine
0.1218478459	each server
0.1218287557	the information theoretic
0.1218136180	convergence analysis of
0.1218135034	performance in addition
0.1218114789	a new parallel
0.1218076733	complete characterization of
0.1217944505	merged into
0.1217942940	the target object
0.1217934951	real time implementation of
0.1217929771	a three step
0.1217911990	computational models of
0.1217690699	full system
0.1217599553	the feasible region
0.1217494880	present study
0.1217452267	emerging field of
0.1217315038	the supplier
0.1217222294	composed by
0.1216991851	complexity of modern
0.1216959466	the parasitic
0.1216923464	a car
0.1216922811	the car
0.1216742612	paper looks at
0.1216619113	good performance
0.1216525839	computational time
0.1216384598	described above
0.1216341560	requires only
0.1216267768	level of
0.1216225010	used to drive
0.1216126409	better efficiency
0.1215859996	the crack
0.1215788331	an authentication
0.1215606881	systems in addition
0.1215602384	initiated by
0.1215563347	to minimize energy
0.1215524253	to explain
0.1215492382	in collaboration with
0.1215196514	a multi layered
0.1215086611	more prevalent
0.1215058654	initial set
0.1215030903	of gene expression data
0.1215019051	design and analysis of
0.1214795475	a medium for
0.1214780331	approach to reduce
0.1214738530	characterized in terms of
0.1214702132	framework for multi
0.1214674691	provide guidelines for
0.1214667620	the image plane
0.1214418634	an expectation
0.1214399929	first prototype
0.1214384900	proposed in order
0.1214280151	does not affect
0.1214220747	the extended kalman
0.1214162600	approach focuses
0.1214120355	approach results in
0.1214100463	effect of
0.1213835922	mitigated by
0.1213805234	the low level
0.1213790190	opposed to
0.1213399051	falls into
0.1213223050	2 1
0.1213124840	first and then
0.1212900216	a novel iterative
0.1212898725	the state transition
0.1212841164	this paper also proposes
0.1212717948	computability of
0.1212571403	mathematical model of
0.1212402474	scheme in order
0.1212331521	this research paper
0.1212213429	properties such as
0.1212147189	new and more
0.1212120372	a middleware
0.1212110818	a multi class
0.1211982169	rule based system
0.1211838568	the multiple input multiple output mimo
0.1211715699	total amount of
0.1211657715	in order to establish
0.1211259998	the gray level
0.1211213204	environments in order
0.1211167485	communicate with
0.1211114062	a common
0.1210902650	operating characteristics
0.1210899584	a recursive
0.1210880586	evaluated through
0.1210852537	a video stream
0.1210825735	regardless of whether
0.1210693728	in order to tackle
0.1210624840	as little as
0.1210615658	network based on
0.1210483735	occurrence matrix
0.1210368703	intrusion detection in
0.1210222409	s fuzzy model
0.1210053164	to efficiently compute
0.1209982417	hardness of
0.1209884852	in peer to peer p2p
0.1209835419	the art performance
0.1209752190	technologies in order
0.1209727622	to conserve
0.1209430785	a formal language
0.1209410281	among genes
0.1209174379	a real environment
0.1209111535	4 n
0.1209067088	to fix
0.1208987971	increase performance
0.1208963143	the reliability of
0.1208900150	a specially designed
0.1208837135	an ongoing
0.1208513363	the queue length
0.1208404825	motivated by applications
0.1208273221	two or more
0.1208011607	undecidability of
0.1207892952	general enough
0.1207890218	the framework
0.1207879585	the number of users
0.1207587809	this paper summarizes
0.1207565263	one order of
0.1207495528	a study
0.1207441444	case of large
0.1207367854	agree on
0.1207358482	to communicate
0.1207214264	the network throughput
0.1207208053	information required
0.1207182417	end to end delay and
0.1207143942	consists of three
0.1207132299	challenged by
0.1207014180	fixed set
0.1206960799	accord with
0.1206841577	the audio signal
0.1206819296	algorithm to identify
0.1206748841	the original graph
0.1206700942	the door
0.1206674808	an analysis
0.1206478681	usually require
0.1206473540	secure under
0.1206469677	article aims
0.1206439924	a gap
0.1206310159	attempt to
0.1206273681	full information
0.1206055087	well approximated by
0.1205927924	a result
0.1205901651	recently become
0.1205860807	termination of
0.1205786433	in terms of bit error rate
0.1205624840	as few as
0.1205274998	problem of constructing
0.1205209068	an integer
0.1204926957	mw at
0.1204917712	the problem of selecting
0.1204727313	very sensitive to
0.1204642746	the movie
0.1204547411	a piecewise linear
0.1204517927	schemes based on
0.1204382081	in wireless sensor network
0.1204256786	an adequate
0.1203928431	different modalities
0.1203517892	the sum of
0.1202921982	neural network based on
0.1202874243	the predator
0.1202853233	the key point
0.1202620749	a non convex
0.1202599888	algorithm in addition
0.1202427941	mapping between
0.1202133685	large corpus
0.1201907734	presence of
0.1201888601	the reservoir
0.1201774611	dependent data
0.1201651429	for safety critical
0.1201224047	as effective as
0.1201188709	the main reasons
0.1201114585	the minimum mean square
0.1200989728	technique relies
0.1200837780	parameter value
0.1200727116	the theoretical analysis
0.1200697800	the key
0.1200550241	a steady state
0.1200545496	the total weighted
0.1200476512	fault detection in
0.1200459674	the optimal strategy
0.1200438219	3d image
0.1200138460	a push
0.1200095191	amplifier with
0.1199957767	a formal definition
0.1199946269	with two other
0.1199889223	the wavelet coefficients
0.1199873795	a theoretical
0.1199806345	distribution of
0.1199635728	the gradient descent
0.1199413667	the problem of computing
0.1199372722	devices such as
0.1199369158	selected set
0.1199327899	the second method
0.1199191352	hop network
0.1199082776	the single machine
0.1199050423	our study shows
0.1198931155	used to solve
0.1198599955	various kinds of
0.1198454505	a forensic
0.1198451864	a real
0.1198306004	both space and
0.1198261450	the signal to noise ratio snr
0.1198122462	positive rate of
0.1198077493	the primary users
0.1197946269	as small as
0.1197867357	an artificial immune
0.1197811397	an effective algorithm
0.1197307860	many researches
0.1197215467	with minimum degree
0.1197163818	an excellent
0.1197137007	the service oriented
0.1197110162	predictions about
0.1197037915	digraphs with
0.1197024514	a linear
0.1196795896	the delay dependent
0.1196759507	the kernel matrix
0.1196743896	three main
0.1196650994	clustered into
0.1196602339	the standard
0.1196520401	the stationary distribution
0.1196462833	each robot
0.1196438198	an investigation into
0.1196397388	bioinformatics online
0.1196255123	in vehicular ad hoc
0.1195995180	a cost
0.1195941162	special characteristics of
0.1195898197	unique feature of
0.1195654166	while providing
0.1195652589	alleviated by
0.1195527064	the fundamental frequency
0.1195288874	the experimental results showed
0.1195215679	an idea
0.1195167987	the analytical results
0.1195112225	conflict between
0.1195071157	a poset
0.1195027401	to encrypt
0.1195025608	model for mobile
0.1194996538	the control plane
0.1194914819	reluctant to
0.1194717635	the skeleton
0.1194214791	often fail
0.1194196269	a different way
0.1194109702	a digraph
0.1193921732	a manufacturer
0.1193746107	a key factor
0.1193738274	to imitate
0.1193699889	real time systems with
0.1193603527	whole process
0.1193506883	based semi
0.1193442107	the power consumption
0.1193234114	a modified
0.1193197330	cost high
0.1193176890	the performance gap
0.1193162090	the effort to
0.1192855809	the programmer
0.1192840465	the transmitter side
0.1192512988	an arbitrary number of
0.1192409819	problem of optimal
0.1192330705	a hybrid algorithm
0.1192277850	the main advantage of
0.1192269067	brought into
0.1192123404	a step by step
0.1192096257	recent trends in
0.1192043956	problem of multi
0.1191995247	quite effective
0.1191834351	stability criteria for
0.1191748535	the relay nodes
0.1191679774	an achievable
0.1191612936	not all of
0.1191385238	engine based
0.1191298688	to gather information
0.1191177023	complex web
0.1190958455	model in order
0.1190933242	to defend
0.1190798484	novel image
0.1190786307	a key component
0.1190782806	the boundary layer
0.1190709292	designed to
0.1190646043	in order to adapt
0.1190604325	a gaussian mixture
0.1190453855	decidability of
0.1190343948	and weaknesses of
0.1190050867	connections among
0.1189778489	original algorithm
0.1189777209	interference between
0.1189626231	becomes even more
0.1189607031	based on line
0.1189453509	the robustness of
0.1189453509	the validity of
0.1189335210	promoted by
0.1189076643	a high degree
0.1189043164	high peak
0.1188651054	applied to large
0.1188481073	to expand
0.1188387509	often require
0.1188217604	aspects of information
0.1188196639	also given to
0.1188045475	the approach taken
0.1187735293	aims to
0.1187473149	one parameter
0.1187343699	network lifetime by
0.1187306400	intelligence techniques
0.1187227034	draws on
0.1187180190	two complementary
0.1187142105	a variational
0.1187006597	the brain
0.1186945400	topological structure of
0.1186617165	modern information
0.1186581367	a miniature
0.1186412263	the posterior distribution
0.1186267241	the received signals
0.1185950626	adoption of
0.1185946269	from 0 to
0.1185857979	power consumption while
0.1185785895	overall performance
0.1185747203	a query
0.1185676269	a major issue
0.1185641904	a significant role
0.1185612497	the traffic flow
0.1185575792	information related to
0.1185560367	elaborate on
0.1185390100	based on similarity
0.1185389351	a linear matrix inequality
0.1185179509	provide information on
0.1185171591	the brake
0.1184702639	data sets show
0.1184622297	decisions about
0.1184584385	framework in order
0.1184570492	full state
0.1184405137	the seller
0.1184378539	a two link
0.1184356287	only local information
0.1184305562	a pivotal role
0.1184248315	the proposed models
0.1184170262	a time series
0.1184105567	the intuitionistic fuzzy
0.1183943814	a 018 m
0.1183720650	100 times
0.1183689197	not only
0.1183520369	approximation ratio of
0.1183357875	each individual
0.1183204670	the query
0.1183096361	more efficient than
0.1183081572	the first author
0.1182946269	as demonstrated in
0.1182918127	implications for research
0.1182590876	the low resolution
0.1182565147	to predict future
0.1182502296	a conservative
0.1182420655	a coarse to fine
0.1182258060	response to
0.1182127617	a proactive
0.1182126238	the theoretical results
0.1181800344	an example
0.1181752637	the usual
0.1181638877	based on clustering
0.1181513432	each gene
0.1181504510	than or equal to
0.1181383712	the macrocell
0.1181272837	relay networks with
0.1181132143	a fixed number of
0.1181046461	the air
0.1180972208	a method
0.1180946490	the second kind
0.1180923661	the total variation
0.1180827502	a low overhead
0.1180473523	in order to get
0.1180403773	an extensive experimental
0.1180393617	most popular
0.1180334098	each data point
0.1180306475	proposed so far
0.1180172210	sustainable development of
0.1179938663	presence of multiple
0.1179847860	rests on
0.1179814093	wireless sensor network for
0.1179787415	agent based system
0.1179783126	quite general
0.1179726363	the flow field
0.1179674335	different approaches
0.1179568695	clearly demonstrate
0.1179535365	number of elements
0.1179512086	paper intends to
0.1179425994	in order to preserve
0.1179335948	minimal amount of
0.1179328555	db at
0.1179285860	the minimum degree
0.1179277850	a finite number of
0.1179189575	the fundamental matrix
0.1179025148	to check
0.1179017698	not present in
0.1178963817	the azimuth
0.1178959746	submitted to
0.1178934364	of choice for
0.1178827852	the problem space
0.1178676570	stability properties of
0.1178672999	operate at
0.1178607686	approach to develop
0.1178550495	several real world
0.1178470064	a hard task
0.1178452589	the firewall
0.1178417601	provide support for
0.1178413083	the way people
0.1178156373	still images
0.1178123219	the same scene
0.1177899224	while offering
0.1177890218	the study
0.1177850423	to fully exploit
0.1177283542	the number of vertices
0.1177254708	a polynomial
0.1177221441	much interest
0.1176945973	by demonstration
0.1176943776	to convey
0.1176440276	the nose
0.1176270196	oriented towards
0.1176196269	with probability one
0.1176160130	feature extraction from
0.1176103893	control of
0.1176076697	in order to make
0.1176046331	with regard to
0.1176019293	in order to enable
0.1176008004	conventional ones
0.1175956228	both labeled and
0.1175730356	a time varying
0.1175721047	under investigation
0.1175708722	large values of
0.1175362936	better and more
0.1175354739	all around
0.1175345970	an incident
0.1175344663	genetic algorithm for
0.1175234610	to equip
0.1175165822	a snapshot
0.1175145365	the ultimate
0.1174951469	performance degradation due to
0.1174926544	an investigation of
0.1174842270	an external
0.1174793512	output mimo system
0.1174535082	a robot
0.1174468688	more intuitive
0.1174320228	routing protocol with
0.1174267161	tracking control of
0.1173940965	a polynomial algorithm
0.1173905014	the received signal strength
0.1173690797	a sequence of
0.1172914026	analytical results show
0.1172824280	algorithm does not require
0.1172817145	a feature based
0.1172768269	following questions
0.1172732739	very flexible
0.1172613333	class of stochastic
0.1172553601	low bit
0.1172543581	fast algorithms for
0.1172358953	in recent times
0.1172308960	intuitive way
0.1172307000	potential to improve
0.1172251721	the particle swarm optimization pso
0.1171871940	the minimum distance
0.1171792930	new business
0.1171675731	an analysis of
0.1171517698	more information than
0.1171448792	attempting to
0.1171445912	quantitative comparison of
0.1171208978	each color
0.1171191412	a predicate
0.1171174105	conference on
0.1171162586	an alignment
0.1171150234	processed by
0.1171126516	power efficiency of
0.1171023421	number of instances
0.1170750885	memetic algorithm for
0.1170697800	the goal
0.1170573188	compensated by
0.1170565346	by fusing
0.1170562218	up to
0.1170535735	the target language
0.1170468292	help designers
0.1170277946	by invoking
0.1170119396	too high
0.1169935672	the existing
0.1169884655	end delay
0.1169675410	presented to evaluate
0.1169493255	an unknown
0.1169482359	preconditioner for
0.1169406521	brought by
0.1169372775	channel estimation for
0.1169363530	a key element
0.1169344664	the number of distinct
0.1169258153	organizing maps
0.1169098038	expected to
0.1168976304	a patent
0.1168934364	as simple as
0.1168840797	the sensor node
0.1168471084	the job
0.1168458265	a firm
0.1168198546	proposed idea
0.1168159830	the application of
0.1168094370	model to provide
0.1167980770	large portion of
0.1167803514	the false positive
0.1167750557	constructed by
0.1167539388	solution of linear
0.1167478459	an average error
0.1167267698	as input for
0.1167211306	the proposed idea
0.1167061179	the job shop scheduling
0.1166959774	increasing interest
0.1166883316	locus of
0.1166606879	invariant under
0.1166426407	possible outcomes
0.1166319110	under various conditions
0.1166184167	vision tasks
0.1166111484	the capacitated
0.1166021773	only slightly
0.1165886137	2 c
0.1165841614	a mobile agent
0.1165819203	the rule base
0.1165645976	particular cases
0.1165630079	obtained via
0.1165597601	an important problem
0.1165579801	this paper shows
0.1165568626	running on
0.1165531469	issues regarding
0.1165505054	probabilistic method
0.1165414166	fundamental properties of
0.1165042087	complex nature
0.1164914819	participates in
0.1164914164	a broad spectrum
0.1164430657	held at
0.1164395722	the channel state
0.1164367470	for wireless sensor networks wsns
0.1164298280	the spread of
0.1164292236	possible solutions
0.1164180156	the base stations
0.1163945683	rather than just
0.1163912035	algorithm for wireless
0.1163692694	a neuro
0.1163252675	deviation from
0.1163245329	the total transmission
0.1163218620	described here
0.1163184225	method for 3d
0.1162921764	average signal to
0.1162892258	more resilient
0.1162880560	the ultimate goal
0.1162815745	the optimization process
0.1162441223	a first order
0.1162364280	the wavelet based
0.1162274719	error mmse
0.1162239854	manipulated by
0.1162198549	data rate of
0.1162112729	results obtained show
0.1161976240	the transverse
0.1161878568	the sampled data
0.1161783529	powerful technique
0.1161774681	obtained through
0.1161770608	fit into
0.1161691181	the traditional
0.1161686640	knowledge sharing in
0.1161584501	a practical point of view
0.1161497520	implementation and evaluation of
0.1161336919	conforming to
0.1161296923	an observer
0.1161251818	for obstacle avoidance
0.1161153807	experimental results based on
0.1161101036	influence on
0.1161071339	broader class
0.1160896998	the noise power
0.1160892768	parameter tractable
0.1160771484	learning algorithm for
0.1160731178	to study
0.1160710415	algorithm in order
0.1160566911	to fully utilize
0.1160541534	important techniques
0.1160513929	several case studies
0.1160087964	a domain independent
0.1159874991	3d space
0.1159735208	an optimal control
0.1159639327	more robust than
0.1159637526	agree with
0.1159307575	a principled
0.1159289040	a stable
0.1159051601	to emulate
0.1158952149	a single parameter
0.1158896656	clock frequency of
0.1158723217	of research in
0.1158607211	the first experiment
0.1158590433	by replacing
0.1158587444	operational semantics of
0.1158471923	an exhaustive
0.1158452589	the backoff
0.1158444151	the cross entropy
0.1158434703	standards such as
0.1158091186	delineation of
0.1157592344	implemented in
0.1157560888	conditions under
0.1157534986	different databases
0.1157515903	the spatial temporal
0.1157473412	re design
0.1157459453	each module
0.1157353234	two perspectives
0.1157182456	a promising tool
0.1157033824	the global optimal solution
0.1157031992	experimental evaluation of
0.1156819799	stem from
0.1156643832	a model
0.1156321741	an effective solution
0.1156172681	a web application
0.1155968500	theoretical foundation for
0.1155965659	the expected total
0.1155964060	the antecedent
0.1155898144	in order to classify
0.1155763325	both static and dynamic
0.1155757081	data in order
0.1155499387	the well known
0.1155473232	do not assume
0.1155293503	to determine whether
0.1154914473	this study compares
0.1154815137	coupled with
0.1154554372	high signal to
0.1154490780	the load balancing
0.1154395049	to tell
0.1154201793	experimental performance
0.1153951682	path planning in
0.1153866656	stability of
0.1153725010	used to analyse
0.1153648209	iterative methods for
0.1153589730	adapts to
0.1153586723	a hierarchical bayesian
0.1153540944	the minimum cardinality of
0.1153540680	a fundamental problem
0.1153495337	a manet
0.1153382997	adapt to changes in
0.1153345563	following steps
0.1153270212	earlier than
0.1153124375	a first attempt
0.1153055379	challenges related to
0.1153033295	proof of
0.1152909322	an aspect
0.1152692359	the main novelty
0.1152635864	a multi channel
0.1152369614	design of efficient
0.1152360805	naturalness of
0.1152255220	throughput per
0.1152200179	match between
0.1152034563	method to achieve
0.1152010614	the design
0.1151775472	much better
0.1151675731	an approach to
0.1151501676	to automatically identify
0.1151353393	in favor of
0.1151253912	a pc
0.1151224725	the greedy algorithm
0.1151222524	an equivalent
0.1151205198	to delineate
0.1151204670	the program
0.1151103973	the signal to noise ratio
0.1151039199	error rate of
0.1151023426	the channel state information
0.1150801008	recognition based on
0.1150686135	introducing new
0.1150268201	based model for
0.1150210752	more frequently
0.1150159340	growing complexity of
0.1150057376	associated with
0.1149953718	two types of
0.1149915054	this problem by proposing
0.1149898947	to identify potential
0.1149837130	demonstrated by
0.1149775676	building blocks for
0.1149769575	different sets of
0.1149606526	space time block
0.1149579155	an adaptive algorithm
0.1149413620	composed of three
0.1149284758	a software tool
0.1149235239	a fully polynomial
0.1149179248	a low order
0.1148935364	better performance
0.1148806345	integration of
0.1148517892	the end of
0.1148478214	at different locations
0.1148440163	the rainbow
0.1148416961	a ranked list of
0.1148347054	the global
0.1148261988	one variable
0.1148234740	an agreement
0.1148224389	a given set of
0.1148117479	an image processing
0.1147902170	specific types of
0.1147504721	on synthetic and real world
0.1147488956	any constant
0.1146914688	to attract
0.1146795967	method for modeling
0.1146670918	of thumb
0.1146661133	difficult to
0.1146595840	a new evolutionary
0.1146561784	a self contained
0.1146551953	made available
0.1146544669	a high gain
0.1146452425	dependent on
0.1146406546	analysis of web
0.1146314721	a one dimensional
0.1146192886	provide more accurate
0.1146108894	while maximizing
0.1146096950	different languages
0.1146077806	structure of
0.1146048106	one degree of freedom
0.1145927967	no evidence
0.1145818084	prediction based on
0.1145794624	operating at
0.1145785360	elaborates on
0.1145765946	a significant number of
0.1145686101	common approach
0.1145127775	smaller number of
0.1145055671	an organism
0.1145025295	the null space
0.1144964588	for on line
0.1144940892	proof uses
0.1144932845	usability evaluation of
0.1144906754	an integration
0.1144858787	segmentation based on
0.1144817258	performance during
0.1144727034	removed from
0.1144581967	design implementation and
0.1144573523	detectability of
0.1144568380	recent interest in
0.1144530399	minimal set of
0.1144431826	posterior probability of
0.1144320792	among students
0.1144298347	a heuristic
0.1144076222	each cycle
0.1144073713	novel cross
0.1144073051	better accuracy than
0.1143992604	designed in order
0.1143982041	at speed
0.1143925226	asked to
0.1143681187	size m
0.1143653302	the achievable throughput
0.1143378534	defined over
0.1143340779	between peers
0.1143302052	a complete
0.1143224030	value problem
0.1142860649	intuitive user
0.1142825288	the total weight
0.1142807277	ones own
0.1142788589	an efficient heuristic
0.1142788327	the third order
0.1142748039	the digital age
0.1142734615	an alphabet
0.1142727401	evaluated by
0.1142708389	two numerical examples
0.1142620794	every n
0.1142376612	taking place in
0.1142272096	the convex hull of
0.1142093989	an exponential
0.1141988781	direct application of
0.1141955355	the network based
0.1141949863	modeling and simulation of
0.1141929383	quality of results
0.1141918166	a static analysis
0.1141916870	other state of
0.1141869640	designed for
0.1141828450	change detection in
0.1141785265	an interface
0.1141662513	number of tasks
0.1141516909	the covariance matrix
0.1141515917	the dark
0.1141509329	to improve performance
0.1141461045	generated from
0.1141437954	an extensive
0.1141311238	back to
0.1141220071	difficult to find
0.1140773788	a game
0.1140769091	models in order
0.1140763085	in one dimension
0.1140620610	reduced by
0.1140489806	together to form
0.1140252602	development of web
0.1140132934	problem of selecting
0.1140064592	the study of
0.1140017960	vertex set of
0.1139893429	architecture for
0.1139865396	variety of real
0.1139816608	a 3d
0.1139787819	a fixed length
0.1139767698	used successfully in
0.1139762556	a multi scale
0.1139762081	a general
0.1139760625	the ergodic
0.1139732561	make decisions
0.1139652081	two identical
0.1139460812	unknown number of
0.1139425644	good match
0.1139342608	a test
0.1139296974	to go
0.1139266455	children with
0.1139201638	overview of
0.1139055152	element approximation
0.1139020122	the application level
0.1138975367	move towards
0.1138901394	key problem
0.1138786970	the globe
0.1138703609	the home
0.1138551482	set of training
0.1138523726	a key step
0.1138391873	under mild
0.1138272141	an emotional
0.1138210234	redistribution of
0.1138185698	this article considers
0.1138182468	received little
0.1138074552	step toward
0.1137946355	the channel capacity
0.1137857903	more advanced
0.1137649491	our approach
0.1137468624	fundamental problem of
0.1137309264	designed specifically for
0.1137296189	techniques such as
0.1137096584	the message passing interface
0.1137041126	to harvest
0.1136977313	more effective than
0.1136961109	the ventral
0.1136957135	the art systems
0.1136954220	control algorithm for
0.1136842889	the graph based
0.1136735293	trained on
0.1136703481	to use
0.1136654357	a space time
0.1136490921	used for
0.1136292455	the problem of minimizing
0.1136218274	for wireless mesh networks
0.1136198769	targeted at
0.1136021480	kind of information
0.1135976553	the problem domain
0.1135968562	a dominating set
0.1135648691	space x
0.1135623665	the primary network
0.1135622533	every point
0.1135602032	used to
0.1135476248	most existing approaches
0.1135436308	an effective method
0.1135415219	the summer
0.1135410750	fading channels with
0.1135360192	order to remove
0.1135263788	approach to web
0.1135216626	a specific
0.1135125835	complex control
0.1134913578	a three stage
0.1134857986	a new data
0.1134419540	the growth rate
0.1134341163	a small scale
0.1134244387	a well defined
0.1134213337	bounds for
0.1134147293	et al 2
0.1134055550	case study of
0.1133906521	protected by
0.1133776743	a cascaded
0.1133725780	interfaced with
0.1133609336	the trade off between
0.1133601950	extended to
0.1133561714	an integer k
0.1133427258	question whether
0.1133404940	to remember
0.1133380585	on road
0.1133310693	a socio
0.1133170092	the marketplace
0.1132979781	the sheer
0.1132834975	an augmented
0.1132627776	the nth
0.1132560376	2 log
0.1132534018	many applications including
0.1132467217	the non stationary
0.1132395351	a significant performance improvement
0.1132215419	an important element
0.1132195861	wishing to
0.1132183480	an isolated
0.1132014542	time selective
0.1131834269	the ball
0.1131793824	algorithm to achieve
0.1131701103	a third party
0.1131691550	automatic verification of
0.1131570261	direct impact on
0.1131516772	a succinct
0.1131330556	allowing users to
0.1131236466	ensured by
0.1131224602	to modify
0.1130982158	new ideas
0.1130726699	post processing of
0.1130612337	incorporation of
0.1130569880	to exchange information
0.1130460823	next step
0.1130393617	more flexibility
0.1130150718	cryptanalysis of
0.1130147362	a bare
0.1130123587	human perception of
0.1129997317	a large number
0.1129928662	begun to
0.1129867373	the main concepts
0.1129839133	trade off in
0.1129769575	a matter of
0.1129767698	in association with
0.1129732374	the security of
0.1129560272	a certain threshold
0.1129532607	by end users
0.1129333987	the case based
0.1129275192	information to improve
0.1129190884	less power
0.1129042528	the atmosphere
0.1128954303	loss due to
0.1128809284	taxonomy for
0.1128764447	the tree based
0.1128621219	the earth
0.1128499480	about 15
0.1128283106	other existing methods
0.1128085140	strengths and weaknesses of
0.1127845782	compared with other
0.1127834951	model for web
0.1127773392	the optimal order
0.1127593644	a physics based
0.1127425335	an agricultural
0.1127378208	the smart home
0.1127283738	method using
0.1127227034	termed as
0.1127169814	a significant effect
0.1126999171	the process
0.1126913351	to efficiently handle
0.1126726141	tasks such as
0.1126655340	mac protocol in
0.1126650234	classified as
0.1126632636	to initiate
0.1126582900	to propagate
0.1126385138	ability to deal with
0.1126349019	research based on
0.1126336446	a logical
0.1126192845	even more difficult
0.1126112598	widely used in
0.1126067473	about 25
0.1126033053	critical step
0.1125760444	the right
0.1125684052	able to manage
0.1125505884	a tractable
0.1125461540	reducible to
0.1125391887	an enhanced version
0.1125172181	the disparity
0.1125170117	still exist
0.1125163097	the message passing
0.1125151187	the paper examines
0.1124869300	a scheduling algorithm
0.1124714389	any edge
0.1124693832	the past
0.1124504741	an alternate
0.1124477205	framework consists of
0.1124453646	designed to deal
0.1124443595	many advantages
0.1124410105	to populate
0.1124277651	a non stationary
0.1124158544	algorithm proposed in
0.1124112066	processes involved in
0.1124028456	the parameter space
0.1123963856	extensively studied in
0.1123957352	coloring of
0.1123916007	qualitatively different
0.1123853822	available today
0.1123692035	inconsistency in
0.1123664502	need to
0.1123592208	formalisation of
0.1123279912	performance comparison of
0.1123244306	a discrete event
0.1123217580	illustrated by means of
0.1123215728	parameterized complexity of
0.1122972599	recently introduced by
0.1122832289	the simulation results demonstrate
0.1122604175	a dynamic model
0.1122467966	the social sciences
0.1122435672	the application
0.1122348941	between pairs of
0.1122339997	the experimental group
0.1122284691	used to improve
0.1122257361	in turn
0.1122138083	displayed on
0.1122104596	to model
0.1122058381	the location of
0.1122039620	in close proximity
0.1122033938	the gateway
0.1121932523	a distance metric
0.1121894361	presented in
0.1121892971	the writer
0.1121858259	the most informative
0.1121537746	2 p
0.1121471528	process in order
0.1121169337	robust enough
0.1120998686	the current trend
0.1120991612	this work investigates
0.1120974578	in order to promote
0.1120974548	a practical application
0.1120885311	used to control
0.1120819851	a mobile user
0.1120761758	a paradigm shift
0.1120482186	non minimum
0.1120453509	a combination of
0.1120337326	extensive experiments show
0.1120320494	a wireless ad hoc
0.1120267759	family of
0.1120139413	the parent
0.1120030184	seem to
0.1120029121	a new feature
0.1119906914	construction of
0.1119802663	the n dimensional
0.1119676355	unaware of
0.1119627675	find evidence
0.1119519207	success rate of
0.1119370563	this work
0.1119356806	aspect of
0.1119289571	the complete graph
0.1119207785	the problem of scheduling
0.1119148958	knowledge management in
0.1118707220	held by
0.1118616271	to apply
0.1118604275	a framework for
0.1118477540	through extensive experiments
0.1118356401	to end users
0.1118278944	flexible enough to
0.1118277525	the vicinity of
0.1118194400	the real time
0.1117650065	to cancel
0.1117599553	with multiple antennas
0.1117576192	replaced with
0.1117488673	base station to
0.1117459453	each receiver
0.1117441683	the supervisor
0.1117375739	some nonlinear
0.1117131530	admission control for
0.1117046590	a novel data
0.1116999171	the analysis
0.1116957220	understood as
0.1116931830	a multiple input multiple output
0.1116923716	insights about
0.1116867183	different strategies
0.1116830673	data structure for
0.1116812795	the leakage current
0.1116649770	by letting
0.1116558427	detection rate of
0.1116440276	the homography
0.1116396886	allow users
0.1116302061	classification of
0.1116201907	the web server
0.1116091220	a formal specification
0.1116012591	arise during
0.1115961109	a tournament
0.1115934668	visual inspection of
0.1115913687	an alternative solution
0.1115633836	combined effect
0.1115588257	compensates for
0.1115515624	serving as
0.1115409878	users in order
0.1115340884	the admission control
0.1115322988	three objectives
0.1115217136	attractive because
0.1115074620	each other
0.1115017934	codes based on
0.1114895016	to specify
0.1114770724	paper improves
0.1114747129	the watermarked
0.1114621933	the multi objective
0.1114563243	begin by
0.1114551953	without considering
0.1114550773	conceptual design of
0.1114113398	such as
0.1114039843	the transmitter
0.1113974530	the analysis of
0.1113899098	to discretize
0.1113764805	the server
0.1113635923	different platforms
0.1113388075	to leverage
0.1113257557	at rest
0.1113204670	the database
0.1113040142	the basic
0.1112823839	real time monitoring of
0.1112650511	function pdf of
0.1112592544	takes place in
0.1112479015	to inject
0.1112432974	more quickly
0.1112422298	and external disturbances
0.1112402514	more comprehensive
0.1112375316	modulated by
0.1112352161	traditional ones
0.1112071378	the art method
0.1112071308	a significant fraction of
0.1111869554	an underwater
0.1111822138	an unconstrained
0.1111597125	a multi hop
0.1111478734	the concept of fuzzy
0.1111466538	in fact
0.1111451972	dynamic reconfiguration of
0.1111373557	this result
0.1111360294	an in depth analysis
0.1111257377	approach lies in
0.1111216051	while consuming
0.1111172825	each attribute
0.1111135693	a cluster
0.1111115900	baseline system
0.1111088856	with time windows
0.1111047920	network in order
0.1111042742	specific needs
0.1111019726	a central role
0.1110906998	the target image
0.1110845737	for future research
0.1110789921	able to reduce
0.1110754208	to answer
0.1110676548	a large collection
0.1110608139	an in depth analysis of
0.1110247646	given data set
0.1110206113	different application domains
0.1110120132	to migrate
0.1110046705	the optimal threshold
0.1109849812	the input output
0.1109795419	the optimal transmission
0.1109732085	the whole
0.1109701091	if and only
0.1109522520	and disadvantages of
0.1109517283	the public key
0.1109453509	a group of
0.1109453509	the success of
0.1109453509	the introduction of
0.1109418930	to bind
0.1109402559	solution to
0.1109354401	help improve
0.1109338992	a multiscale
0.1109226309	languages such as
0.1109089980	by one or
0.1109088344	significantly improved by
0.1108488006	wider class
0.1108433750	the tree structure
0.1108410337	a web interface
0.1108265748	image in order
0.1108260942	significant reduction
0.1108228122	form of
0.1108183191	two parallel
0.1108148340	the optimal path
0.1108124059	test results show
0.1108072098	current paper
0.1108054571	a building block
0.1107823128	this manuscript
0.1107633395	to interpolate
0.1107601368	less area
0.1107487523	this study demonstrates
0.1107298904	a counterexample
0.1107264489	used to create
0.1107264489	used to detect
0.1107191717	allocation scheme for
0.1107036059	the simulation model
0.1106887461	solved via
0.1106868801	differential equation with
0.1106848483	often requires
0.1106808075	to disseminate
0.1106754904	the iris
0.1106685526	to catch
0.1106670493	the main features of
0.1106665540	points aps
0.1106590238	the power
0.1106506792	an organisation
0.1106499804	a point set
0.1106475130	a program
0.1106453085	the classical
0.1106339074	the remainder
0.1106029101	the back end
0.1105909500	the self organization
0.1105890723	the upper bounds
0.1105879698	in order to remove
0.1105815015	the out of
0.1105515624	differently from
0.1105502589	judged by
0.1105381277	the soil
0.1105357107	the principal component
0.1105262486	reacting to
0.1105254836	dependence on
0.1105230319	the asymptotic
0.1104989344	the secret
0.1104915148	a real number
0.1104872628	definable in
0.1104859312	support software
0.1104791237	supply chain with
0.1104785105	classified according to
0.1104570422	a pre specified
0.1104461760	results presented in
0.1104151360	query processing in
0.1104075035	able to cope
0.1104073843	rapid growth of
0.1103941325	a high quality
0.1103897953	the usability of
0.1103882336	infinite family of
0.1103829045	accurate modeling
0.1103808260	the problem of constructing
0.1103613676	a frequency selective
0.1103474754	sequence of images
0.1103294476	each site
0.1103256132	four distinct
0.1103219399	the whole network
0.1103218368	design of complex
0.1103049513	study focuses on
0.1102806073	results exhibit
0.1102586707	control design for
0.1102535584	problems encountered in
0.1102325077	significant changes
0.1102299994	benefit of using
0.1102265931	two pairs of
0.1102121865	to decouple
0.1102103553	the final result
0.1101954834	the mesh size
0.1101898216	in order to calculate
0.1101751477	aims to find
0.1101745345	robust to
0.1101730855	an acceptable
0.1101580932	to further improve
0.1101575975	channel assignment in
0.1101546981	predicted by
0.1101524055	recent progress in
0.1101478254	a feature vector
0.1101268127	the 2nd
0.1101082217	study aims
0.1101001017	reproducibility of
0.1100871922	security model for
0.1100833823	the set of
0.1100788656	the non dominated
0.1100597822	used to obtain
0.1100478991	limited amount of
0.1100469246	a crucial role
0.1100258173	this context
0.1100207783	both synthetic data
0.1100095452	evolution of
0.1099967264	remarks on
0.1099943559	activation in
0.1099773609	the dorsal
0.1099772755	the visual cortex
0.1099565004	used to compute
0.1099461109	the iphone
0.1099406825	quite well
0.1099371112	time pressure
0.1099368904	approach to image
0.1099287664	solely based on
0.1099267771	to relieve
0.1099259497	10 times
0.1099209151	number of false
0.1099096663	the maximum entropy
0.1099022719	simulations show
0.1099003435	mechanism for
0.1098996393	the time varying
0.1098856471	contrast between
0.1098821662	dimensional models
0.1098812202	first of all
0.1098769696	several well known
0.1098567959	a global
0.1098372369	to compare
0.1098362796	a heuristic method
0.1098213314	an elastic
0.1097945436	than previous methods
0.1097718699	the art algorithm
0.1097672794	to keep
0.1097504016	a small
0.1097481836	the final goal
0.1097419290	some interesting
0.1097390613	performance with respect
0.1097278085	the autocorrelation function
0.1097238046	certain classes of
0.1097196065	a non uniform
0.1097009632	a fuzzy inference
0.1096997245	a programmable
0.1096934087	set of data
0.1096928533	performed better than
0.1096663192	a very important issue
0.1096619664	as much as
0.1096553788	reorganization of
0.1096552052	the scene
0.1096313319	the classification accuracy
0.1096198312	technology to improve
0.1096165624	many organizations
0.1096154870	the main purpose of
0.1095983654	the transmission rate
0.1095955909	in order to simulate
0.1095835103	mainly focused on
0.1095791348	the time frequency
0.1095733179	a popular technique
0.1095672720	a cooperative
0.1095614714	same performance as
0.1095502962	to wait
0.1095478343	platform for
0.1095346047	different sources
0.1095135227	procedure based on
0.1095080481	performance characteristics of
0.1094960611	the particle swarm optimization
0.1094719226	the final decision
0.1094194870	not straightforward
0.1093971672	a role based
0.1093961910	different colors
0.1093786645	a stochastic
0.1093775016	the contest
0.1093740870	the development process
0.1093682020	an anomaly
0.1093455440	a unique solution
0.1093188741	take advantage
0.1092967055	to recommend
0.1092804077	languages like
0.1092571167	standard deviation of
0.1092503650	an assembly
0.1092438882	kinds of data
0.1092393957	the amount of
0.1092352950	the surface
0.1092184140	widely applied to
0.1092035657	energy consumption of
0.1091822410	the semantic
0.1091646828	the genetic algorithm
0.1091600767	example demonstrates
0.1091350370	over fading
0.1091127790	approach for multi
0.1091071134	to justify
0.1090684731	a block based
0.1090656123	the leader
0.1090627460	powerful method
0.1090439326	the total number of
0.1090166581	the proposed codes
0.1090162252	networks in order
0.1090065930	proved to
0.1089907796	virtue of
0.1089769575	the feasibility and effectiveness of
0.1089753707	prior knowledge of
0.1089716242	to demonstrate
0.1089679236	experiments on
0.1089622831	the service oriented architecture
0.1089586008	other things
0.1089494276	a non rigid
0.1089453509	the majority of
0.1089372127	control over
0.1089335206	enables users to
0.1089284995	the point of view of
0.1089129388	reduction in
0.1089122537	this essay
0.1089022729	the local
0.1088888601	the secrecy
0.1088777465	the canopy
0.1088716391	a lower dimensional
0.1088691445	dynamic nature of
0.1088574719	new approaches
0.1088567514	resulting in
0.1088545867	a near optimal
0.1088529075	the mutual information
0.1088525182	unified approach to
0.1088430190	framework for mobile
0.1088347054	the solution
0.1088232588	the first
0.1088206763	the local structure
0.1088201853	a specific domain
0.1087970924	consumes only
0.1087970842	thus reducing
0.1087889468	the tutorial
0.1087734912	power consumption by
0.1087727773	each step
0.1087652635	the estimation error
0.1087633303	the channel matrix
0.1087476862	among nodes
0.1087402529	original approach
0.1087331461	to achieve high
0.1087328814	the number of transmit antennas
0.1087268151	the subthreshold
0.1087202630	a distributed environment
0.1087181029	to check whether
0.1087154540	as close as
0.1087140470	the vehicle
0.1087129157	performed on
0.1087057524	controllability of
0.1087019084	the proposed test
0.1086953331	reconstructed from
0.1086884941	environment in order
0.1086876749	to protect against
0.1086821320	a low level
0.1086754087	metrics such as
0.1086750335	interface gui
0.1086723263	the heap
0.1086711015	a wireless mesh network
0.1086390335	by providing
0.1086334939	the simulation
0.1086283703	between sensor nodes
0.1086176941	of attraction
0.1086086523	a tree structure
0.1086074426	through extensive simulation
0.1085987730	help researchers
0.1085964773	emerges from
0.1085959772	the support vector machine svm
0.1085671234	covariance matrix of
0.1085592670	near linear
0.1085444132	the wheelchair
0.1085198194	the mobile agent
0.1085158444	best performance
0.1084786755	the probability of detection
0.1084566135	the time dependent
0.1084504741	by observing
0.1084450781	the channel impulse
0.1084449903	both spatial and temporal
0.1084394942	results obtained in
0.1084329148	lessons learned in
0.1084284569	comparison purposes
0.1084276608	an xml
0.1084064452	different domains
0.1084058565	the knowledge based
0.1083935019	the path loss
0.1083825704	the positioning accuracy
0.1083793999	problem in addition
0.1083648433	to undertake
0.1083641171	the output
0.1083553812	authentication scheme for
0.1083525025	guidelines for
0.1083497615	the small world
0.1083453509	this type of
0.1083292592	the problem of detecting
0.1083172485	used to study
0.1083146688	path between
0.1083058356	main reason for
0.1083041113	types of features
0.1082959011	capable of dealing
0.1082819329	set of discrete
0.1082814607	modelling and analysis of
0.1082608207	a major
0.1082586045	the high snr
0.1082568951	the rear
0.1082553391	to find
0.1082369619	initial set of
0.1082264489	used to build
0.1082193906	promising technique
0.1082099000	slightly more
0.1082058924	does not assume
0.1081957597	the end users
0.1081887184	a mobile
0.1081822988	different stakeholders
0.1081741403	performance study of
0.1081736215	the most relevant
0.1081647850	a multi user
0.1081556223	segmentation of
0.1081431936	much more efficient than
0.1081154367	the ground plane
0.1080948644	a cognitive radio
0.1080931004	a methodological
0.1080910930	stabilizability of
0.1080877182	the history
0.1080833823	the solution of
0.1080815974	an important task
0.1080697800	the previous
0.1080544011	after describing
0.1080517906	the mouth
0.1080459239	the extracted features
0.1080453509	a pair of
0.1080157317	expressed in
0.1080145356	minimum mean
0.1080051575	the peer to peer
0.1079975289	the query image
0.1079862116	anomaly detection in
0.1079757217	the box
0.1079668516	the diamond
0.1079649320	impacts on
0.1079553230	various strategies
0.1079528915	applications in wireless
0.1079508725	numerical simulation of
0.1079453509	a new approach to
0.1079453509	a measure of
0.1079453509	the possibility of
0.1079414578	studied problem
0.1079412773	an existing
0.1079274813	an evaluation
0.1079274654	large n
0.1079126545	weighted sum of
0.1078992592	central problem
0.1078954718	proposed scheme uses
0.1078733942	the multiple input multiple output
0.1078551482	number of input
0.1078545234	an intensity
0.1078377812	the technology acceptance model
0.1078309262	robot with
0.1078220924	operate under
0.1078195329	stimulated by
0.1078143158	some computational
0.1077945380	the finger
0.1077838915	a retrospective
0.1077739854	reflected by
0.1077733514	a set s of
0.1077563806	brief introduction
0.1077556518	lower bound of
0.1077530886	the non uniform
0.1077287199	the global asymptotic stability
0.1077272490	power dissipation of
0.1077228122	property of
0.1077033123	the italian
0.1076940166	to achieve higher
0.1076931060	the solder
0.1076658721	new call
0.1076620529	the semi automatic
0.1076486164	world problem
0.1076413386	the most stable
0.1076346361	more important than
0.1076298204	state distribution
0.1076149441	methodology based on
0.1076120092	efficient representation
0.1076046331	to cope with
0.1076028445	accessed by
0.1075933162	collected through
0.1075920020	this study aims
0.1075912818	developed for
0.1075824051	the whole image
0.1075653952	a blog
0.1075559878	also discussed
0.1075438081	serious problems
0.1075413331	to make sure
0.1075380221	role in
0.1075333298	the channel length
0.1075252390	utilisation of
0.1075221396	in order to cope with
0.1074943811	this assumption
0.1074925832	the road
0.1074849263	a holistic
0.1074762028	more than once
0.1074722593	a mobile node
0.1074593680	methods in addition
0.1074455102	mean time to
0.1074361778	separated from
0.1074224529	one vertex
0.1073825276	a model of
0.1073704448	linear complexity of
0.1073601365	techniques to obtain
0.1073534687	boundedness of
0.1073532767	resulting from
0.1073360390	2 l
0.1073321129	the optimal design
0.1073204670	the human
0.1073204670	the project
0.1072964793	minimum amount of
0.1072928601	a public key
0.1072887169	larger number of
0.1072840761	the ever increasing
0.1072835197	convenient way
0.1072660539	important component
0.1072465087	form expression for
0.1072277986	the mirror
0.1072271657	approach does not require
0.1072270543	the optimal number of
0.1072147216	used to design
0.1072032264	of length n
0.1071916955	an infinite family
0.1071845664	a primary user
0.1071763523	set of agents
0.1071705136	a humanoid
0.1071607771	relation among
0.1071516663	model with
0.1071474543	this trade off
0.1071292311	during evolution
0.1071085158	the network structure
0.1070965861	a psychological
0.1070925811	the grid
0.1070813956	each partition
0.1070549990	our analysis reveals
0.1070513432	each camera
0.1070510455	solution based on
0.1070453509	a collection of
0.1070421429	a multimodal
0.1070300229	this paper evaluates
0.1070162252	images in order
0.1069920378	outage probability of
0.1069776928	very effective
0.1069706938	noise reduction in
0.1069693156	a state of
0.1069612461	controller based on
0.1069296285	an increase in
0.1069132250	the sun
0.1069057061	the two methods
0.1068933808	important step towards
0.1068800388	to accept
0.1068793932	the minimum cost
0.1068656486	a high accuracy
0.1068463272	type neural
0.1068461962	a large variety of
0.1068456949	methodology for
0.1068260619	implemented on top of
0.1068186181	a coalition
0.1068036724	the crash
0.1067920444	the model checker
0.1067852485	fraction of
0.1067750125	the dynamic
0.1067744478	to prioritize
0.1067706974	an accelerometer
0.1067704509	a special kind of
0.1067702556	model proposed by
0.1067631957	the life cycle
0.1067588646	important problems in
0.1067535693	a tree
0.1067506080	selection of
0.1067465851	retrieval based on
0.1067455041	features such as
0.1067335112	not exceed
0.1067322803	to recognise
0.1067295505	enumeration of
0.1067215398	the thrust
0.1067146221	an easy way
0.1067087349	a fixed
0.1067055506	three sets of
0.1066997021	a computer aided
0.1066950822	de facto standard for
0.1066929046	in many real world applications
0.1066908925	a user defined
0.1066773840	signal changes
0.1066594128	the queue
0.1066541934	compared to single
0.1066428478	brief discussion
0.1066399790	the workplace
0.1066390785	product life
0.1066307402	a reduced order
0.1066307217	intelligence based
0.1066286524	correlated with
0.1066209765	the simulation result shows
0.1066016841	powerful enough to
0.1065957134	reformulated as
0.1065845789	each person
0.1065755102	into two classes
0.1065661006	a document
0.1065326817	interviews with
0.1065317508	an original method
0.1065316596	each dimension
0.1065313436	superposition of
0.1065251942	such as facebook
0.1065056684	the e learning
0.1065014553	of service qos
0.1064871330	as small as possible
0.1064865004	the proposed heuristic
0.1064770970	an indicator
0.1064756578	indexed by
0.1064633556	resistant to
0.1064555333	account for
0.1064354325	becomes more
0.1064346318	an anti
0.1064284792	for real time applications
0.1064063814	other well known
0.1063995944	the spot
0.1063970633	any graph
0.1063921481	the membership functions
0.1063781399	the recognition process
0.1063664502	to make
0.1063652578	various types of
0.1063641876	the energy efficiency
0.1063589834	increased number of
0.1063566089	problem of learning
0.1063528330	substantial improvements in
0.1063527986	the plasma
0.1063526105	do not satisfy
0.1063461576	effective strategy
0.1063128250	want to
0.1063066711	method for learning
0.1062947206	some preliminary
0.1062877658	compete with
0.1062855998	interesting alternative
0.1062852270	the architectural level
0.1062712400	to save
0.1062621090	degrees of
0.1062608710	much improved
0.1062502359	to peer
0.1062502018	a virtualized
0.1062497486	the time frequency domain
0.1062452669	a fuzzy controller
0.1062427554	polynomial time algorithms for
0.1062352950	the search
0.1062352950	the energy
0.1062190326	answered by
0.1062189490	a node
0.1061965290	a rewrite
0.1061761164	a well established
0.1061648688	addressed by
0.1061561712	the mean square
0.1061465070	the high order
0.1061461583	sent to
0.1061451767	the 3d
0.1061438426	the twin
0.1061209870	preliminary analysis of
0.1061141012	the map
0.1061037842	an extensive set of
0.1061015638	the optimal power
0.1060980273	the ice
0.1060948892	a brain computer interface
0.1060720401	the cover image
0.1060646068	an important step
0.1060468735	the center of mass
0.1060401415	no change
0.1060391715	a study of
0.1059973006	not sufficient
0.1059820077	the k means algorithm
0.1059595628	decision support for
0.1059505160	to derive
0.1059482961	of occurrences of
0.1059463647	to carry
0.1059453509	the emergence of
0.1059309931	to add
0.1059305336	uncertainty associated with
0.1059034330	an ambient
0.1058959743	an innovative approach
0.1058905552	algorithm with
0.1058890974	derives from
0.1058882386	a step toward
0.1058859751	the meantime
0.1058838541	calculation time
0.1058828462	services based on
0.1058766428	more intelligent
0.1058762674	a 0 1
0.1058758647	the wrist
0.1058699146	a combinatorial
0.1058661585	walks on
0.1058498035	variety of tasks
0.1058486396	of moving objects
0.1058249189	mined from
0.1058139495	results from two
0.1057987723	used to characterize
0.1057975371	employing multiple
0.1057732284	wang et
0.1057618814	the bottleneck
0.1057610442	to configure
0.1057526130	an explanation
0.1057461912	fabricated by
0.1057457405	the wireless sensor network
0.1057390233	average number of
0.1057383974	approach to achieve
0.1057372380	spent on
0.1057280277	in practice
0.1057241159	the network capacity
0.1057222397	a human expert
0.1057209139	set of resources
0.1057133321	domain of interest
0.1057124757	particularly suitable
0.1057004169	higher computational
0.1056990777	the market
0.1056962379	the closed form
0.1056922474	in three dimensions
0.1056919537	computational methods for
0.1056863016	our goal
0.1056793957	more expensive
0.1056718472	an introduction to
0.1056594000	both simulated and real
0.1056584033	sensitivity analysis of
0.1056532868	a buyer
0.1056515341	an infinite family of
0.1056470896	the time delay
0.1056251022	an indexing
0.1056180724	top boxes
0.1056095882	a customizable
0.1056010937	sub system
0.1055987571	increasing complexity of
0.1055986529	a convergent
0.1055981984	extraction from
0.1055965533	to illustrate
0.1055954598	a frequency domain
0.1055900471	speedup over
0.1055889875	various reasons
0.1055709494	optimization problems with
0.1055682291	clustering algorithm for
0.1055634907	better fit
0.1055512145	admission control in
0.1055439244	solutions in terms
0.1055413681	an email
0.1055377796	wireless multi
0.1055336232	try to find
0.1055090833	for multi robot
0.1055087503	the overall
0.1055083481	a dialog
0.1055038734	set consisting of
0.1055016763	most difficult
0.1054827624	a high rate
0.1054809025	the mean shift
0.1054796432	come from
0.1054497904	used to validate
0.1054453509	a range of
0.1054389500	the network connectivity
0.1054355288	to serve
0.1054351082	more effectively
0.1054321826	a challenging research
0.1054194147	manifestation of
0.1054018397	among agents
0.1053897953	the magnitude of
0.1053848958	emerge from
0.1053692346	to remedy
0.1053615188	any k
0.1053585154	an extension of
0.1053574201	the speed up
0.1053456045	ever more
0.1053149868	provides insight into
0.1053006338	codewords of
0.1052852544	on randomly generated
0.1052716710	a significant increase
0.1052687452	the raw data
0.1052620749	a sub optimal
0.1052462681	a post processing
0.1052227090	quantitative performance
0.1052206428	relative importance of
0.1052094483	the virtual
0.1052036647	assessment of
0.1051987413	the field
0.1051981745	sparse representation of
0.1051916379	issued by
0.1051773895	underlying structure of
0.1051766352	the first case
0.1051656775	a uniform
0.1051630133	help people
0.1051628883	shape from
0.1051560502	a small number
0.1051555602	a mixture
0.1051094830	a polygon
0.1050999628	the rationale behind
0.1050968053	for instance
0.1050842745	a comprehensive evaluation
0.1050826497	the probability of
0.1050817642	study attempts to
0.1050811386	the generalized
0.1050536968	design framework for
0.1050453509	a subset of
0.1050226634	the number of clusters
0.1050191430	better understanding
0.1050146051	large sets
0.1049997867	an investigation
0.1049876563	the expense of
0.1049776928	much research
0.1049650474	csi at
0.1049523377	the reader
0.1049478164	used to produce
0.1049466632	high frame
0.1049453509	the feasibility of
0.1049353283	large quantity
0.1049286023	problems such as
0.1049261231	the sender
0.1049133966	the battery
0.1048874026	a state transition
0.1048674288	in order to learn
0.1048617207	an extended version of
0.1048593090	different levels of abstraction
0.1048557335	the sagittal
0.1048555616	energy consumption for
0.1048461109	a spreadsheet
0.1048395630	similarity measures for
0.1048347369	two sets of
0.1048152567	paper focuses on
0.1048064988	to mimic
0.1048057261	classifier using
0.1047954168	each period
0.1047584693	uniform distribution of
0.1047570911	the detection performance
0.1047524134	the city
0.1047446018	the proposed structure
0.1047164688	to stay
0.1047072919	the deflection
0.1046791928	various sizes
0.1046770599	the final product
0.1046686161	the improved method
0.1046633443	the frequency response
0.1046629743	problem arising
0.1046612896	relevance between
0.1046582508	intend to
0.1046575903	challenging research
0.1046519453	a perceptually
0.1046452092	does not depend
0.1046265605	broad class of
0.1045947270	the goal of
0.1045943126	diverse set of
0.1045880212	the workspace
0.1045797330	achieves near
0.1045729148	delivered to
0.1045699510	the instructor
0.1045487048	the fuzzy logic
0.1045473526	formal framework for
0.1045405972	generative model for
0.1045157208	a new architecture
0.1045135495	the deadline
0.1045019938	the prediction error
0.1044899790	into two parts
0.1044809638	the dipole
0.1044613699	the achievable rates
0.1044607469	refer to as
0.1044387755	used to refine
0.1044381084	simplified version of
0.1044284662	a simplified version
0.1044269512	efficiency compared
0.1044176009	the paper studies
0.1044131132	above issues
0.1044101826	the average packet
0.1043841743	a web
0.1043600545	the second part
0.1043495923	a theoretical point of view
0.1043199535	the minority
0.1043184827	in particular
0.1043140497	an index
0.1043099767	uniform way
0.1043090164	the optimal control
0.1043066222	representative set of
0.1042722582	the discrete wavelet transform
0.1042583305	at risk
0.1042443920	recommendations based on
0.1042422146	used to select
0.1042382571	verify whether
0.1042362463	the main motivation
0.1042202765	the work described
0.1042201745	maximum degree of
0.1042058381	the position of
0.1041615503	a vector space
0.1041466155	this paper demonstrates
0.1041437378	error probability of
0.1041427169	hierarchical structure of
0.1041344810	the network topology
0.1041198132	problem in wireless
0.1041170862	more accurate than
0.1041150852	random variables with
0.1041023715	design and optimization of
0.1040826497	the evolution of
0.1040822227	with low overhead
0.1040564068	to arrange
0.1040508721	thus making
0.1040290853	this fact
0.1040204509	a wide class of
0.1040062546	consists of two
0.1039931908	analysis of gene
0.1039858482	to conduct
0.1039746087	model in addition
0.1039682854	main application
0.1039565807	numerical study of
0.1039505701	user experience in
0.1039457928	set of test
0.1039423795	the search results
0.1039168750	ideas about
0.1039100950	a novel optimization
0.1038867367	to get
0.1038864685	most preferred
0.1038703481	used in
0.1038625075	an omni
0.1038553702	a persuasive
0.1038547936	without increasing
0.1038435107	the first attempt
0.1038371803	most existing methods
0.1038356806	written in
0.1038323027	complexity of computing
0.1038244164	effort required to
0.1038172857	selected set of
0.1038149657	solely on
0.1038122670	simulation studies show
0.1038022089	large portion
0.1038000513	the abstract syntax
0.1037841225	method to
0.1037787167	modeling and control of
0.1037712832	an original
0.1037711972	accuracy compared to
0.1037481164	supply voltage of
0.1037476529	joint distribution of
0.1037453576	does not always
0.1037426138	computation based on
0.1037329734	an important goal
0.1037324758	restrictions on
0.1037105213	the non cooperative
0.1037067788	a reliable
0.1036986999	this study examined
0.1036979541	video over
0.1036826913	the newly developed
0.1036744758	a novel probabilistic
0.1036521545	large volume of
0.1036506913	able to provide
0.1036493064	an optimization method
0.1036492475	the compression ratio
0.1036449467	the decision making
0.1036319062	a so called
0.1036223570	the teacher
0.1036067700	particle filter for
0.1036044640	the most probable
0.1036020514	a compositional
0.1035997096	a suitable
0.1035947270	the ability to
0.1035947270	the notion of
0.1035887301	a reflection
0.1035851731	without feedback
0.1035829483	spectral analysis of
0.1035782699	the radio frequency
0.1035692594	considerable interest in
0.1035631312	subclass of
0.1035610200	novel solution
0.1035593243	hard to
0.1035234797	evolutionary algorithm for
0.1035219825	target tracking in
0.1034925832	the driver
0.1034907768	some special
0.1034902664	design of mobile
0.1034647282	an option
0.1034425659	departure from
0.1034418895	detector based on
0.1034407015	a symbolic
0.1034393691	software package for
0.1034320786	a central problem
0.1034293026	the virtual machine
0.1034087766	each unit
0.1033752960	decided by
0.1033585154	this kind of
0.1033522056	the first one
0.1033492454	to help users
0.1033326720	the root causes
0.1033254153	to prune
0.1033108876	line engineering
0.1033080849	cohort of
0.1033053922	used to provide
0.1033044055	certain types of
0.1032980177	consumed by
0.1032975769	the frequency band
0.1032953289	the decision tree
0.1032906521	resolved by
0.1032904181	developed by
0.1032604275	a method for
0.1032277986	the foot
0.1032077793	the mobile terminal
0.1031858482	this question
0.1031855779	the cell
0.1031800627	positive effect on
0.1031764161	a boolean
0.1031691662	this brief
0.1031603054	the level of
0.1031448166	all frequent
0.1031446236	a real valued
0.1031381732	the bag of words
0.1031370816	the original signal
0.1031366905	set of guidelines
0.1031250346	gained much
0.1031133567	an induced
0.1031055817	a powerful technique
0.1031007079	best possible
0.1030993688	the paper explores
0.1030855230	mainly focuses on
0.1030697800	the expected
0.1030632937	from different viewpoints
0.1030586610	the backend
0.1030447528	a bundle
0.1030220368	a pseudorandom
0.1029913999	other forms of
0.1029881337	the bulk of
0.1029715252	the proposed solutions
0.1029703207	number of attributes
0.1029642937	a complex problem
0.1029599208	insight about
0.1029369745	of particular importance
0.1029280603	the objective of
0.1029127545	satisfied by
0.1029033035	systems in order
0.1028990579	the battery life
0.1028908877	the basic principles
0.1028878965	many computer vision
0.1028839899	issues such as
0.1028833318	about 100
0.1028736237	verified via
0.1028736016	error performance of
0.1028714827	used to collect
0.1028581245	technique applied
0.1028559658	a novel low
0.1028508978	the smoothed
0.1028473174	a practical example
0.1028294641	difficult if not
0.1028271258	the vehicle routing problem
0.1028206538	for real time video
0.1028191969	communication needs
0.1028188859	a two hop
0.1028031068	to do so
0.1027902895	this process
0.1027794095	based on principal component
0.1027782974	the cloud
0.1027701256	a question answering
0.1027591267	limited to
0.1027532171	resources available
0.1027274928	a shared memory
0.1027092339	a probabilistic model
0.1027032934	routing problem with
0.1026977488	a case study based
0.1026913611	protocol for
0.1026902980	the author
0.1026900300	different regions
0.1026494093	analysed using
0.1026483864	each subject
0.1026458463	a pen
0.1026358634	approach for automatically
0.1026315464	different implementations
0.1026273609	the plaintext
0.1025980273	the beacon
0.1025951706	broadcast nature of
0.1025930174	utilization of
0.1025790493	studied extensively in
0.1025710197	the value of
0.1025688053	common way to
0.1025679604	reconstruction of
0.1025653222	new paradigm
0.1025519298	lock in
0.1025194244	systematic review of
0.1025143264	to bring
0.1024843519	two criteria
0.1024817140	an internet
0.1024739003	the fuzzy controller
0.1024614277	growth rate of
0.1024588230	at least one
0.1024553625	a color image
0.1024543933	and synthetic data sets
0.1024484890	the symbol error rate
0.1024420705	common types of
0.1024391324	the drain
0.1024335625	the problem size
0.1024251347	least number
0.1024167439	suitable for applications
0.1024159391	a new method for
0.1024053841	the 1st
0.1024012431	an analog
0.1023937572	a unique
0.1023934955	neighbor classifier
0.1023931365	the model driven
0.1023844908	a high precision
0.1023789813	the mean squared
0.1023709166	asymptotic analysis of
0.1023568623	a specific application
0.1023442548	the near field
0.1023307841	appearing in
0.1023206669	a test set
0.1023048107	justified by
0.1023040835	sophistication of
0.1022920901	executed by
0.1022865156	robot based on
0.1022828310	the test statistic
0.1022586124	the internal state
0.1022576207	an auditory
0.1022473360	the k means
0.1022279396	algorithm for image
0.1022262395	the structure of
0.1022252858	much wider
0.1022192346	to strengthen
0.1022033359	implemented on
0.1021958729	2 r
0.1021821458	often difficult
0.1021690578	a new energy
0.1021433138	a mixture model
0.1021371956	a mixture of
0.1021306340	more efficiently
0.1021283169	minimizer of
0.1021038757	very useful
0.1020978214	from various sources
0.1020867053	used to implement
0.1020691384	the search engine
0.1020603518	the mobile node
0.1020602318	some well known
0.1020453509	the efficacy of
0.1020453455	design considerations for
0.1020279693	fields such as
0.1020236838	the particle filter
0.1020157317	located in
0.1019897169	the software industry
0.1019850200	in order to select
0.1019781399	the modified algorithm
0.1019774537	this notion
0.1019663749	the timit
0.1019652257	the elderly
0.1019600420	this demonstration
0.1019185843	the average power
0.1019128933	the post processing
0.1018966633	over 90
0.1018931874	however many of
0.1018895272	sharing among
0.1018563863	the proposed feature
0.1018498065	method for face
0.1018478718	the transform domain
0.1018281217	the camera
0.1018198951	diversity gain in
0.1018026571	the mechanical properties
0.1017917201	real challenge
0.1017646138	the single user
0.1017638168	varying number
0.1017624691	a hard problem
0.1017586989	the early stage
0.1017385311	the most recent
0.1017384206	the experimental results obtained
0.1017362831	able to improve
0.1017289990	with maximum degree
0.1017271871	control approach to
0.1017158726	the mobile device
0.1017084706	a new application
0.1017060629	a nonparametric
0.1017035462	the second one
0.1017007146	the nist
0.1016986760	obtainable from
0.1016831120	other industries
0.1016818341	number generation
0.1016675751	small portion of
0.1016610844	power control for
0.1016598990	the feature space
0.1016402943	by imposing
0.1016401081	the proposed device
0.1016379548	a mobile station
0.1016334939	the spatial
0.1016311095	data dissemination in
0.1016293956	ergodic capacity of
0.1016131675	evolutionary approach to
0.1016033953	the most crucial
0.1015957614	measured in terms of
0.1015913368	step approach
0.1015692414	a front end
0.1015627660	the research model
0.1015582101	the finite element
0.1015392446	agrees with
0.1015381088	a new digital
0.1015267735	each core
0.1015249020	two subproblems
0.1015161608	a new iterative
0.1015149452	effectiveness of
0.1015055202	method in order
0.1015037561	the semantic gap
0.1014939175	by adapting
0.1014830305	the receiver side
0.1014674568	an adaptive learning
0.1014624863	an identity
0.1014493189	time rt
0.1014471077	capable of dealing with
0.1014410506	by using
0.1014379761	process consists
0.1014303368	in order to develop
0.1014012376	two classes
0.1014005711	better performances
0.1013976398	magnitude faster than
0.1013867167	the median
0.1013759883	a system
0.1013459030	problem of designing
0.1013423712	flow over
0.1013333506	the wireless medium
0.1013315368	the web page
0.1013245779	the formation of
0.1013133902	a workflow
0.1013104908	low supply
0.1013069394	networks based on
0.1013008182	among users
0.1012869659	changes in
0.1012831787	the internet of things
0.1012729142	seems to
0.1012658338	a certificate
0.1012502169	to stop
0.1012500933	good robustness
0.1012465876	various factors
0.1012446249	the next generation
0.1012429231	amount of
0.1012427929	three types of
0.1012424449	a design methodology
0.1012345491	based control of
0.1012262395	the implementation of
0.1011985264	a finite number
0.1011978734	interference cancellation for
0.1011894671	an automotive
0.1011892189	centered on
0.1011882419	a large corpus
0.1011826962	paper also discusses
0.1011603054	the distribution of
0.1011600832	improvements over
0.1011561624	but also
0.1011513089	an active research
0.1011469248	information flow in
0.1011371809	the localization problem
0.1010815945	a process model
0.1010795221	reinforcement learning to
0.1010634765	the result showed
0.1010536724	the atlas
0.1010522627	time frames
0.1010354164	not feasible
0.1010279176	order to assess
0.1010234180	embedded in
0.1010193887	temporal evolution of
0.1010055801	each task
0.1009987539	the optimal set
0.1009904065	the root mean square
0.1009859845	the actual performance
0.1009828187	number of points
0.1009824742	the ns 2
0.1009521289	necessary conditions
0.1009184636	the multi scale
0.1009161140	existence of
0.1009122177	a qualitative
0.1009092435	executed on
0.1009011750	contrasted with
0.1009004548	a significant improvement
0.1008937499	included in
0.1008918608	the clock
0.1008895094	still limited
0.1008867495	enriched with
0.1008607032	the penetration
0.1008481832	the optimal allocation
0.1008438119	proposed method consists of
0.1008282886	more energy
0.1008106458	a secret
0.1007990766	a small subset
0.1007979345	both qualitative and quantitative
0.1007978593	a metric space
0.1007933537	a domain ontology
0.1007472119	a multi layer
0.1007397068	debate on
0.1007358468	by associating
0.1007336768	strategy for
0.1007259909	the recently proposed
0.1007245952	the question of whether
0.1007123358	need to understand
0.1006923610	an automaton
0.1006814077	a good choice
0.1006791007	the sky
0.1006772084	set of criteria
0.1006721324	the null
0.1006619113	by integrating
0.1006449584	research presents
0.1006362582	a microfluidic
0.1006198172	adaptive control of
0.1006180110	a continuous
0.1005939123	advantages over other
0.1005920837	two major
0.1005907305	against attacks
0.1005749771	separation of
0.1005697800	the major
0.1005634150	query by
0.1005578217	every step
0.1005558804	aside from
0.1005459596	significantly more
0.1005408983	very well
0.1005397976	important properties of
0.1005360980	the design phase
0.1005246957	introduced here
0.1005198194	the service quality
0.1005183171	the interpretability
0.1005059988	other classes
0.1004910642	2 m
0.1004889353	required for
0.1004570304	numerical analysis of
0.1004544255	the firm
0.1004418047	our method
0.1004307666	a state space
0.1004086669	function subject to
0.1003879585	such systems
0.1003835621	used as
0.1003811585	investigation of
0.1003798595	an influence
0.1003780809	a first stage
0.1003714791	thus requiring
0.1003714773	tackled by
0.1003686640	target detection in
0.1003659273	ranked according
0.1003658931	the corresponding
0.1003645968	too low
0.1003477247	strategies based on
0.1003453685	further improved
0.1003398610	translation into
0.1003338836	thus facilitating
0.1003331150	challenges involved in
0.1003251254	quality of data
0.1003228350	likely to
0.1003199535	the universe
0.1003177439	a model transformation
0.1003120457	the service level
0.1003047141	referred as
0.1002864551	the capacity
0.1002809234	the union of
0.1002750125	the joint
0.1002617673	a row
0.1002589939	while maintaining high
0.1002262395	the class of
0.1002258533	data produced by
0.1002233825	very easy
0.1002223776	to accurately predict
0.1002118473	for wireless sensor network
0.1002107847	a virtual machine
0.1001995440	quantities such as
0.1001936949	the client side
0.1001910984	the entrance
0.1001836350	the power dissipation
0.1001820614	the segmentation process
0.1001753727	scheduling problem in
0.1001596796	specific type of
0.1001546283	the shape
0.1001544537	very likely
0.1001433710	different sensors
0.1001377007	algorithm in terms
0.1001332432	a nonlinear
0.1001329731	do not contain
0.1001263899	to extract features
0.1001248994	a two class
0.1001027165	the exact
0.1000949267	a dialogue
0.1000932252	a simplified model
0.1000818264	delay systems with
0.1000797330	select appropriate
0.1000741535	the ietf
0.1000704446	fulfilled by
0.1000586295	two main
0.1000529953	said to
0.1000508227	introduced into
0.1000501390	and environmental factors
0.1000453509	a family of
0.1000419525	to test
0.1000305151	square root of
0.1000288167	in wireless communication systems
0.1000270633	a formative
0.1000248557	the transfer function
0.1000246182	to store
0.0999940270	our results demonstrate
0.0999861427	spread over
0.0999728626	the inductor
0.0999569710	phase noise of
0.0999455898	a prototype
0.0999450717	not obvious
0.0999411285	advantage of
0.0999386420	the original images
0.0999332667	arrangement of
0.0999235964	for multiple input multiple
0.0999103966	the attractiveness
0.0999006562	case execution time
0.0999004162	participation in
0.0998879271	a lot of
0.0998789312	the control flow
0.0998755305	the missing data
0.0998573869	of new services
0.0998562397	like robot
0.0998541260	two layers
0.0998424688	the book
0.0998315404	knowledge base for
0.0998267006	yet powerful
0.0998257069	two disjoint
0.0998181244	range of conditions
0.0998150718	summation of
0.0998097822	used to demonstrate
0.0998044305	uncertainty in
0.0998011109	the guard
0.0997935818	loss of
0.0997898010	well known methods
0.0997883374	the proposed formulation
0.0997859905	a software project
0.0997819535	constant number of
0.0997801000	problem arises in
0.0997781273	feedback control for
0.0997672148	an opinion
0.0997610356	the security
0.0997529473	detect whether
0.0997333812	to drive
0.0997209951	approach to software
0.0996924283	simulation experiments show
0.0996822259	to prolong
0.0996754741	new opportunities
0.0996733350	methods such as
0.0996619113	an essential
0.0996436637	the required data
0.0996309992	the left
0.0996202729	a language model
0.0996151194	each source
0.0996103966	the kth
0.0996066626	just like
0.0996053182	design based on
0.0996049839	the time series
0.0995830182	new forms of
0.0995801051	to cooperate
0.0995792808	challenging due to
0.0995671503	trained by
0.0995636510	the quotient
0.0995561548	applications in addition
0.0995523067	equation with
0.0995346937	variant of
0.0995328431	acquired by
0.0995270637	the intersection
0.0995209932	different definitions
0.0995202994	number of solutions
0.0995174358	assess whether
0.0995024959	already available
0.0994969012	a human
0.0994679604	perception of
0.0994440123	the design problem
0.0994376053	multiple people
0.0994331628	a multi
0.0994286942	an integral
0.0994269586	belonging to different
0.0994049945	combined effect of
0.0993986145	the design cycle
0.0993774045	basic principles of
0.0993748847	call by
0.0993712372	at once
0.0993693909	considered in order
0.0993600253	to share
0.0993508978	the luminance
0.0993497694	very much
0.0993467966	a digital library
0.0993437390	the hybrid algorithm
0.0993285763	the interpolated
0.0993184324	a novel model
0.0993097023	in combination with
0.0992927816	the state
0.0992791084	a weighted average
0.0992708322	a 2 d
0.0992392819	random sample of
0.0992317443	measure based on
0.0992242195	event detection in
0.0992219509	the experimental results reveal
0.0992029840	a three dimensional 3d
0.0991957371	the mean number of
0.0991895170	the bit error
0.0991859455	a critical
0.0991823440	the clique
0.0991821237	make full use of
0.0991782757	a peer
0.0991738909	growing need
0.0991645661	even more important
0.0991564318	the control law
0.0991360211	the premise
0.0991303834	after training
0.0991220853	three aspects
0.0991135693	a group
0.0990955363	the gene expression
0.0990848379	the motion planning
0.0990828791	the amount of data
0.0990649151	a wireless
0.0990631960	classification accuracy of
0.0990558617	further extend
0.0990512925	to replicate
0.0990495419	a considerable amount
0.0990447146	a large database
0.0990382053	the form of
0.0990290760	method for image
0.0990265760	also discuss
0.0990204509	a small subset of
0.0990141701	possible extensions
0.0990058369	a partial order
0.0989931890	the spinal
0.0989906933	ability to use
0.0989863995	a novel application
0.0989697800	the relative
0.0989565823	most existing
0.0989476839	the proposed strategies
0.0989474043	an overview of
0.0989301732	the mouse
0.0989210207	the protocol stack
0.0989177351	work together
0.0989167650	to gain insight into
0.0988942810	used to develop
0.0988703481	a given
0.0988700710	an energy
0.0988437630	a bug
0.0988278339	simulations indicate
0.0988250892	the step size
0.0988217405	high enough
0.0988183492	an industrial case
0.0987878327	far from
0.0987872915	the singularity
0.0987824656	a neural
0.0987811958	resilient to
0.0987799788	prediction model for
0.0987524436	time invariant systems
0.0987483201	do not always
0.0987187249	recognized by
0.0987081965	to draw
0.0987047110	convergence properties of
0.0986889040	the computational cost
0.0986853072	a non negative
0.0986637161	possible combinations
0.0986506546	door to
0.0986471393	by relaxing
0.0986470287	the homotopy
0.0986404423	regard to
0.0986400772	difference scheme for
0.0986279788	any arbitrary
0.0986268345	a digital camera
0.0986200947	experimented with
0.0986177351	do so
0.0985943356	the population
0.0985922735	the correlation coefficient
0.0985771509	a prefix
0.0985719122	detailed study of
0.0985646576	crucial factor
0.0985600640	scattering from
0.0985578268	probability of
0.0985338911	number of operations
0.0985318632	a local
0.0985314820	growing number
0.0985289891	a maximum likelihood
0.0985046198	to take into account
0.0984706580	emerge as
0.0984679567	of independent interest
0.0984668905	an associative
0.0984614110	further research
0.0984567159	to bring together
0.0984515015	the master
0.0984366586	data collected in
0.0984345691	to extend
0.0984107685	systematic way
0.0983895812	a tensor
0.0983588616	estimator based on
0.0983561999	management based on
0.0983466628	the key problem
0.0983322015	a pre processing
0.0983310490	to fill
0.0983309187	the human operator
0.0983277341	method relies on
0.0983252493	less important
0.0983187559	computational framework for
0.0983146091	four main
0.0983093197	no significant
0.0983016326	on average
0.0982917314	used to approximate
0.0982811620	each video
0.0982807007	by doing so
0.0982715283	applied successfully to
0.0982695111	informed by
0.0982619617	general theory of
0.0982570759	salient features of
0.0982429583	probability distribution of
0.0982262395	the result of
0.0982261243	to obtain accurate
0.0982244499	to invest
0.0982188960	a critical role
0.0982023567	a rough set
0.0981984817	set of g
0.0981855857	to win
0.0981725877	more frequent
0.0981692455	implications for
0.0981671522	technology use
0.0981595728	the length of
0.0981517556	the fuzzy c means
0.0981285415	design principles for
0.0981227702	bind to
0.0981155682	rapid growth in
0.0981136212	based on ant
0.0981114662	low signal to
0.0980879617	systems rely
0.0980842125	central limit
0.0980802311	to follow
0.0980734815	problem of automatic
0.0980649060	a user query
0.0980584009	a stochastic model
0.0980572909	over time
0.0980525116	the heart
0.0980522720	analytical model for
0.0980513625	a first step toward
0.0980506934	to restrict
0.0980454157	queue with
0.0980453509	a novel approach to
0.0980386132	approach consists
0.0980303941	a low resolution
0.0980162226	an argument
0.0980100118	at least 1
0.0980030462	the makespan
0.0979863221	a high dimensional
0.0979760648	the supply voltage
0.0979758623	performs best
0.0979697345	the upstream
0.0979643493	from different perspectives
0.0979453509	in case of
0.0979442145	shaped by
0.0979380316	familiar with
0.0979340147	protocols such as
0.0979279918	demand for high
0.0979260705	so as to improve
0.0979170363	an aid
0.0979070077	in face to face
0.0979056069	a path
0.0979020645	promising method for
0.0979015359	model consists of
0.0978859837	important roles in
0.0978839899	characteristics such as
0.0978813988	type of problem
0.0978578185	enabled by
0.0978552374	responsive to
0.0978465197	crucial part
0.0978462579	degrees of freedom of
0.0978453912	to adopt
0.0978280959	modalities such as
0.0978269721	the detection of
0.0978157328	identified by
0.0978110261	very common
0.0978087200	the border
0.0978073697	the analytic hierarchy
0.0977798238	decide if
0.0977707424	a non deterministic
0.0977500490	the power of
0.0977456821	the impulse response
0.0977360844	data aggregation in
0.0977146494	the control group
0.0977130917	distinguished from
0.0976995710	a speed up
0.0976974555	better accuracy
0.0976896769	involvement in
0.0976856016	a state machine
0.0976748254	a longitudinal
0.0976561354	based on existing
0.0976548165	controller for
0.0976499683	the convergence of
0.0976459956	analogue of
0.0976346608	take part in
0.0976298808	this study reports
0.0976135693	a product
0.0976057991	the schedulability
0.0975899029	the percentage
0.0975889904	the business process
0.0975887300	formal analysis of
0.0975702847	the first place
0.0975628881	embedded within
0.0975581169	a generalization of
0.0975477491	new architecture
0.0975312952	the bottom up
0.0975296914	the genetic algorithm ga
0.0975193005	the envelope
0.0975149452	extension of
0.0975081584	the stego
0.0974922272	a linear program
0.0974908497	significant amount of
0.0974855717	percent of
0.0974838903	a standard
0.0974808849	evaluation framework for
0.0974801988	a well known
0.0974761109	the exit
0.0974667184	the scalability of
0.0974443595	more generally
0.0974292549	an h
0.0974286233	most prominent
0.0974237517	the optimal combination
0.0974235038	derivation of
0.0974172088	approach to automatically
0.0974128312	not applicable
0.0974074629	the feature vector
0.0974072418	only once
0.0974057389	significantly reduced by
0.0974027433	to tolerate
0.0973976465	aided by
0.0973975836	the relative position
0.0973940214	the unit interval
0.0973906929	an important role in
0.0973759067	reduced to
0.0973731943	throughput under
0.0973589791	more prominent
0.0973505701	decision support in
0.0973427842	different representations
0.0973423767	by assigning
0.0973218368	the fractal
0.0972988653	a proxy
0.0972851897	able to compute
0.0972806963	powerful tools for
0.0972762346	sometimes even
0.0972724231	the decisional
0.0972605249	authors describe
0.0972482108	an interior
0.0972480976	the branch and bound
0.0972368411	during testing
0.0972346817	many practical applications
0.0972162761	qos quality of
0.0972159411	to efficiently solve
0.0972104400	knowledge in order
0.0972024790	a universal
0.0971727512	toolkit for
0.0971559212	the small sample
0.0971556223	capacity of
0.0971367244	the bare
0.0971248461	numerical simulations show
0.0970890284	to depict
0.0970851302	the multi robot
0.0970847054	the future
0.0970826497	the area of
0.0970673874	do not provide
0.0970652827	the fault detection
0.0970635337	the main ideas
0.0970497786	many disciplines
0.0970467905	very important issue
0.0970462886	each product
0.0970457558	a ship
0.0970416170	some sort of
0.0970364085	a statistically significant
0.0970284346	to render
0.0970276350	a statistical method
0.0970196945	less effective
0.0970179980	the other
0.0970122748	number of g
0.0969944659	useful knowledge
0.0969897596	the newly proposed
0.0969852802	time sequence
0.0969842711	help understand
0.0969820671	an important class of
0.0969722047	in order to find
0.0969631593	with sequence dependent
0.0969364256	based retrieval of
0.0969345073	a well known problem
0.0969307447	to analyse
0.0969280603	the task of
0.0969140296	the conventional scheme
0.0969065313	an orthogonal
0.0968955652	the buffer size
0.0968814003	different layers
0.0968813602	3d environment
0.0968625863	dynamic properties of
0.0968565446	the initial population
0.0968421555	a haptic
0.0968380056	an individual
0.0968355555	1 t
0.0968274779	a flexible way
0.0968212567	feedback from
0.0968121930	generalization of
0.0968042724	nodes in wireless
0.0968010089	in order to compute
0.0967895519	point of
0.0967883828	accuracy of
0.0967877864	occurs during
0.0967857790	from different sources
0.0967682849	realisation of
0.0967679825	impact of information
0.0967498715	exact algorithm for
0.0967287347	by taking
0.0967181360	an intrinsic
0.0967077906	throughput compared to
0.0966955378	to unify
0.0966939064	for wireless ad hoc
0.0966935046	an intrusion detection
0.0966872427	in certain cases
0.0966672998	a leader
0.0966587979	widely adopted in
0.0966309992	the client
0.0966257160	together with
0.0966257160	along with
0.0965878710	content analysis of
0.0965736325	an urban
0.0965691815	this idea
0.0965649310	a low pass
0.0965581169	in contrast to
0.0965562410	the user experience
0.0965527560	short period of time
0.0965405415	the transmission power
0.0965375710	mathematical framework for
0.0965225521	the paper focuses
0.0965213964	two orthogonal
0.0965210494	interference from
0.0965139899	good trade
0.0964938021	coding with
0.0964906170	encoded into
0.0964840301	the medium access control mac
0.0964767529	the joint probability
0.0964658312	a conceptual
0.0964506925	a methodology
0.0964384175	the following features
0.0964352049	a new type of
0.0964271322	an affine
0.0964266885	the original model
0.0964242163	the most widely used
0.0964148148	the pre processing
0.0964061282	the test case
0.0963958660	the entire process
0.0963919508	performance close to
0.0963724752	a replica
0.0963715048	extended version of
0.0963646719	empirical investigation of
0.0963562242	volume of
0.0963528835	the computational load
0.0963510173	domains such as
0.0963412292	the intrusion detection
0.0963409329	the most effective
0.0963372471	the multi dimensional
0.0963150737	this article aims
0.0963113190	set of models
0.0963055418	three categories
0.0963031625	the degree of
0.0963031625	the behavior of
0.0962967182	a greedy algorithm
0.0962945030	a novel methodology
0.0962750125	the physical
0.0962746339	a trust model
0.0962716929	an ordinary
0.0962393993	specific case of
0.0962349217	an aircraft
0.0962230574	the designer
0.0962230198	a maximum entropy
0.0962197302	to model and analyze
0.0962175765	research aims at
0.0962031217	the throughput
0.0961975045	the maximum number of
0.0961932870	estimation method for
0.0961924339	collected by
0.0961874476	the support vector machine
0.0961672087	framework allows
0.0961662995	estimation technique for
0.0961512536	the adjoint
0.0961223999	this contribution
0.0961160945	the risk of
0.0961013231	lower and upper bounds for
0.0960918852	clusters based on
0.0960887316	the phase transition
0.0960831314	the low dimensional
0.0960805801	starting point of
0.0960780555	order to mitigate
0.0960747203	a target
0.0960722423	the globally optimal
0.0960703447	used to support
0.0960655124	average time
0.0960627555	conducted in order
0.0960580064	further complicated
0.0960452941	model checking to
0.0960421477	more rigorous
0.0960408827	the web site
0.0960233667	a projector
0.0960186827	the method proposed
0.0960145130	to confront
0.0960145130	to fulfil
0.0960072026	in wavelet domain
0.0959959053	algorithm performs better
0.0959941757	the video stream
0.0959805104	the proposed classifier
0.0959771723	knowledge from
0.0959747161	important feature of
0.0959721498	parallel algorithms for
0.0959720048	a higher level
0.0959635395	rate of
0.0959557717	to insert
0.0959410752	compensate for
0.0959310138	small groups of
0.0959180888	a multistage
0.0959072261	the process model
0.0958952994	second phase
0.0958952251	the residual
0.0958952057	tool allows
0.0958904188	study aims to
0.0958307204	a fitness function
0.0958269721	the capacity of
0.0958228396	part of
0.0958064480	bounded number of
0.0958056470	security analysis of
0.0957988644	the semantic similarity
0.0957969429	mostly focused on
0.0957945439	channel estimation in
0.0957890691	in order to quantify
0.0957786842	in response to
0.0957771850	the palm
0.0957408991	emerges as
0.0957400410	the most appropriate
0.0957318285	other participants
0.0957276144	used to perform
0.0957243623	problems concerning
0.0957222026	each region
0.0957220179	actuated by
0.0957185433	to suit
0.0957184906	new scheme
0.0957049674	suitable for low
0.0956995814	the average bit
0.0956972785	a diverse range of
0.0956682985	problem with
0.0956562975	a solution
0.0956529910	feature selection for
0.0956449599	each channel
0.0956443595	more suitable
0.0956416991	the back propagation
0.0956324977	the preconditioned
0.0956190326	visited by
0.0956079030	mobile robot with
0.0955976240	the retina
0.0955957854	the satisfiability problem
0.0955717542	number of devices
0.0955673038	data generated by
0.0955525135	2 db
0.0955476472	k queries
0.0955388642	number of errors
0.0955273965	by mixing
0.0955214860	the foreground
0.0955158403	compact representation of
0.0955137100	the problem of identifying
0.0955047401	an attribute
0.0954976084	to forecast
0.0954948958	the substrate
0.0954904380	search algorithm for
0.0954884520	a fully
0.0954815276	the hydrodynamic
0.0954607736	the search tree
0.0954351577	great number of
0.0954343097	over 80
0.0954293958	the rate region
0.0954262145	network lifetime in
0.0954248753	very good performance
0.0954244697	function value
0.0954225464	by reducing
0.0953886823	particularly useful
0.0953819078	used to segment
0.0953792599	research focused on
0.0953776928	more challenging
0.0953764500	the network nodes
0.0953717252	concludes with
0.0953702625	a given graph
0.0953473569	images obtained from
0.0953382611	a test case
0.0953323025	future directions for
0.0953070382	a corollary
0.0953031625	the computation of
0.0953006906	an opportunity
0.0952831066	more attractive
0.0952796041	more widespread
0.0952654566	user behavior in
0.0952636999	selection based on
0.0952477237	significant gains in
0.0952455287	large collection
0.0952420307	a complex process
0.0952177322	to operate
0.0952114239	the symbol error
0.0951975299	powerful tool for
0.0951967691	a key
0.0951814546	the most important factors
0.0951695111	delivered by
0.0951651062	processing operations
0.0951581642	1 k
0.0951580577	formal model for
0.0951539581	the continuum
0.0951518835	a new solution
0.0951518399	an enormous
0.0951507025	differentiability of
0.0951414471	calculated from
0.0951302671	an offline
0.0951250404	able to deal with
0.0951240383	instead of
0.0951232905	new heuristics
0.0951008091	systematic analysis
0.0950962874	needed to
0.0950957704	the primary objective
0.0950894157	the partition function
0.0950817771	the 4th
0.0950817160	a spherical
0.0950807410	design of future
0.0950782808	significant increase in
0.0950770355	encoded by
0.0950729497	an unbiased
0.0950721784	an illustrative
0.0950620638	number of training
0.0950610826	by projecting
0.0950516147	the estimated parameters
0.0950353399	form expressions for
0.0950314820	smaller number
0.0950300229	this paper compares
0.0950272018	the competitive ratio
0.0950256674	an undirected
0.0950246944	study of
0.0950149994	become more complex
0.0949749142	number of processes
0.0949628285	in order to keep
0.0949550613	visualization of
0.0949514890	an integral part of
0.0949490371	research into
0.0949280603	the creation of
0.0949280603	the ability of
0.0949240538	to assemble
0.0949231689	to match
0.0949140380	a state feedback
0.0949104872	means of simulations
0.0949082216	the optimal value
0.0949041414	overhead compared to
0.0948955456	less sensitive
0.0948944417	a quantitative
0.0948936313	acceptance of
0.0948736786	the main objectives
0.0948498730	estimation scheme for
0.0948446667	achieved without
0.0948399198	both quantitative and qualitative
0.0948399145	this paper formulates
0.0948388746	the plant
0.0948377428	programming model for
0.0948326813	perpendicular to
0.0948322336	the mobile nodes
0.0948302312	the operational semantics
0.0948269721	the evaluation of
0.0948112442	the trade offs between
0.0948054713	the dynamic range
0.0947875597	the main issue
0.0947842388	a high frequency
0.0947775446	the artificial neural network
0.0947654851	the fault diagnosis
0.0947608932	the resource constrained
0.0947596146	the unlabeled data
0.0947381512	to pursue
0.0947261109	the hub
0.0947229177	discussed here
0.0947223975	a multilayer
0.0947196853	the formal specification
0.0947146805	asymmetry in
0.0947136806	the background
0.0947073428	approach in order
0.0946898405	the task
0.0946898405	the research
0.0946889396	the analysis results
0.0946837561	challenges associated with
0.0946787245	to transmit
0.0946566986	the main contribution of
0.0946525110	different numbers of
0.0946434827	to deal with
0.0946354151	order to avoid
0.0946314235	peer to
0.0946270543	the average number of
0.0946260473	the optimal rate
0.0946148057	an increasing number of
0.0946098005	a local search
0.0945894926	in depth analysis of
0.0945727521	class of
0.0945680115	unified view of
0.0945657659	this distinction
0.0945646804	the journal
0.0945599106	at bioinformatics online
0.0945526049	power consumption in
0.0945460929	to discriminate between
0.0945335598	in order to investigate
0.0945277243	a multi robot
0.0945255047	significant progress in
0.0945126861	results produced by
0.0944992782	problem of
0.0944739214	the population size
0.0944638113	taken from
0.0944617158	the main memory
0.0944572253	fast algorithm for
0.0944481252	able to correctly
0.0944406392	an architecture
0.0944360969	a statistical
0.0944339833	a context
0.0944071308	of e learning systems
0.0944014906	the most basic
0.0943877787	attained by
0.0943840611	the second approach
0.0943782240	an absolute
0.0943177514	this goal
0.0943145571	each student
0.0943130366	approach for image
0.0943099954	the edge set
0.0943092099	more practical
0.0943046981	opportunities for
0.0942960203	consists of four
0.0942856059	any additional
0.0942770043	a fair
0.0942680652	a given threshold
0.0942647994	the image quality
0.0942613937	the applicability of
0.0942609333	this research aims
0.0942370987	the predominant
0.0942354288	more efficiently than
0.0942234696	appropriate choice
0.0942160764	the training phase
0.0941855783	theoretical basis for
0.0941792201	important role in
0.0941789476	best suited to
0.0941726151	in two dimensions
0.0941606498	a theoretical analysis
0.0941517987	the anterior
0.0941511995	number of examples
0.0941490964	the diversity order
0.0941485193	less effort
0.0941363896	contrast to existing
0.0941344421	without assuming
0.0941280521	a new paradigm
0.0941244138	the specific problem
0.0941211540	forwarded to
0.0941151283	the potential of
0.0940950747	set of control
0.0940830232	explicit formula for
0.0940733358	adopted by
0.0940729767	the analyst
0.0940702725	the noise level
0.0940625964	the second
0.0940597936	the default
0.0940588146	the rule based
0.0940575985	data management in
0.0940532492	each feature
0.0940453509	the usefulness of
0.0940382053	the construction of
0.0940203329	significant changes in
0.0940086319	studied here
0.0940030488	this area
0.0940029598	two kinds of
0.0940024514	a high
0.0939845969	to motivate
0.0939794630	ad hoc manner
0.0939745381	to sustain
0.0939732374	the shape of
0.0939707894	a centralized
0.0939492201	control system based on
0.0939469265	the input space
0.0939383234	the state of art
0.0939348051	based on minimizing
0.0939314543	the channel model
0.0939156551	the error correction
0.0939111605	the network size
0.0939110595	still challenging
0.0939008733	a customized
0.0938924085	among participants
0.0938843083	some basic
0.0938634062	set of users
0.0938494151	the classroom
0.0938466580	to treat
0.0938363677	front end for
0.0938325618	parametrization of
0.0938269721	the selection of
0.0938132970	to continue
0.0938085813	most important factor
0.0938069879	a key feature
0.0937976800	ber performance of
0.0937970787	this research presents
0.0937825079	by domain experts
0.0937714418	rarely used
0.0937688782	walk on
0.0937556542	any extra
0.0937515234	top box
0.0937410676	theoretical analysis of
0.0937381512	to categorize
0.0937336311	the cellular network
0.0937312802	a 2 dimensional
0.0937305682	the continuous time
0.0937233625	two alternative
0.0937199873	the key issue
0.0937116592	an animation
0.0937092906	a task
0.0936954446	enforced by
0.0936632250	a compact
0.0936623888	the basic concepts
0.0936577612	the whole system
0.0936362297	known attacks
0.0936221359	the essence of
0.0936220115	time distributions
0.0936084796	variable number
0.0935860672	begins by
0.0935700522	help users
0.0935689257	a fresh
0.0935682935	two different approaches
0.0935671228	the verification process
0.0935659094	substantial improvement in
0.0935642753	the rapid growth
0.0935625882	graph g with
0.0935572522	applied in
0.0935522998	a meta
0.0935492743	greedy algorithm for
0.0935439504	new functionalities
0.0935263116	conceived as
0.0935256458	more tractable
0.0935230391	improving performance of
0.0935169680	determinant of
0.0935156223	verification of
0.0935113612	the path planning
0.0935069169	second layer
0.0934981071	kalman filter for
0.0934784287	this paper deals with
0.0934769088	a concrete example
0.0934733644	certain properties
0.0934724939	the probability density function pdf of
0.0934612201	a shape
0.0934446323	useful information
0.0934426371	aligned with
0.0934425977	a highly efficient
0.0934136503	information dissemination in
0.0934090633	3d environments
0.0933982385	an input
0.0933897917	peak to
0.0933854225	while remaining
0.0933634948	the relevance of
0.0933576745	yet little
0.0933432380	conceptualization of
0.0933091714	3 m
0.0933086005	main causes
0.0933049208	the low snr
0.0932894023	comparison with
0.0932893501	the spatial correlation
0.0932591669	no prior
0.0932322406	a ranked list
0.0932304456	the recognition performance
0.0932115708	related changes
0.0932033393	directly from
0.0932014362	the virtual environment
0.0931942046	the quantum
0.0931713692	to write
0.0931693508	the host
0.0931541757	proposed for wireless
0.0931374094	the inverse
0.0931358155	specific features of
0.0931273423	for action recognition
0.0931227511	not allowed
0.0931215398	the perimeter
0.0931138552	spatial resolution of
0.0931087742	four types of
0.0931021177	the required information
0.0930992195	signal detection in
0.0930940763	by dividing
0.0930847054	the result
0.0930696559	a fleet
0.0930600239	convergence of
0.0930567476	each point
0.0930500169	in order to decrease
0.0930382053	the combination of
0.0930324704	the optimal number
0.0930223729	present results of
0.0930149229	for many years
0.0930142309	sampled by
0.0929989023	a sparse representation
0.0929904934	the main goals
0.0929872934	to efficiently support
0.0929698292	a method of
0.0929671245	successfully applied in
0.0929479767	the companys
0.0929316000	three times
0.0929309934	expressive than
0.0929196081	quality assessment of
0.0929169492	in addition to
0.0929134668	the promise of
0.0929079084	model for image
0.0928809043	a weighted
0.0928731208	a domain expert
0.0928672606	the plane
0.0928662418	approach to learning
0.0928561938	this gap
0.0928527785	a lecture
0.0928505249	the social context
0.0928393260	the fast fourier transform
0.0928178643	the maximum throughput
0.0928110769	based on combining
0.0928083677	the testing process
0.0928046048	the proposed scheduling
0.0928043623	a minor
0.0927989660	more than 10
0.0927903148	a low frequency
0.0927874803	less likely
0.0927855079	a simple and effective
0.0927827612	the lifetime of
0.0927816474	the web application
0.0927749171	navigation through
0.0927732666	very efficiently
0.0927728877	to interference plus noise
0.0927705409	antennas at
0.0927667263	deposited on
0.0927648715	a numerical example
0.0927566447	the gray
0.0927524134	the deformation
0.0927519662	decision algorithm for
0.0927507908	four parameters
0.0927308076	against noise
0.0927110227	key features of
0.0927054604	development of efficient
0.0926916466	the impossibility
0.0926858399	other media
0.0926631112	investigation into
0.0926565023	this challenge
0.0926512636	to break
0.0926421413	this paper extends
0.0926414133	the mean squared error
0.0926254169	a prescribed
0.0926168348	any subset
0.0926126356	the generalization ability
0.0926105678	the ber performance
0.0926069805	the second experiment
0.0926053083	to visit
0.0926043905	an immune
0.0925898356	a systematic
0.0925877325	the information contained
0.0925854400	performance in order
0.0925836695	scarcity of
0.0925700456	an english
0.0925532868	the imaginary
0.0925512761	drawing on
0.0925274507	synthesis of
0.0925260915	the membership function
0.0925238635	by restricting
0.0925166684	recovered from
0.0924994934	user interface for
0.0924967676	often employed
0.0924917256	to make decisions
0.0924826425	design and evaluation of
0.0924774514	an error
0.0924742325	categorized as
0.0924728626	the hip
0.0924664782	at most
0.0924612201	a face
0.0924505723	make sense
0.0924408680	a minority
0.0924340642	the exhaustive search
0.0924243718	fed by
0.0924187414	paper aims at
0.0924160794	design approach for
0.0924057036	general enough to
0.0924027675	three modules
0.0923990089	a simple yet effective
0.0923892936	independence between
0.0923816952	augmented with
0.0923724703	provide information about
0.0923703028	a good solution
0.0923624931	stability analysis for
0.0923502646	a topological
0.0923372529	different features
0.0923325522	into clusters
0.0923322336	the video quality
0.0923012978	a sufficient number
0.0922851928	number of researchers
0.0922726845	cost of
0.0922618411	the valence
0.0922547091	the social
0.0922464018	this extended abstract
0.0922415234	type of
0.0922381039	interface allows
0.0922193776	to associate
0.0922193768	between groups
0.0922166095	algorithms in order
0.0922133260	burden on
0.0922045085	plants with
0.0921921646	the snake
0.0921905433	often referred
0.0921893531	data provided by
0.0921874698	the last
0.0921708995	the backbone
0.0921603054	the stability of
0.0921533399	practical interest
0.0921518399	by analysing
0.0921498186	a lot of interest
0.0921469248	active learning for
0.0921340980	execution of
0.0921333745	the memory hierarchy
0.0921290948	compared in terms of
0.0921263183	a strong
0.0921054203	an optional
0.0920914755	method for automatically
0.0920768650	given to demonstrate
0.0920675556	service based on
0.0920573289	theory based on
0.0920543016	consideration of
0.0920541035	the opposite
0.0920481962	as part of
0.0920259703	the fourth
0.0920243482	the standard deviation
0.0920214683	a comprehensive analysis
0.0920205707	a better understanding of
0.0920056088	a serious problem
0.0920035865	a general approach for
0.0919817022	algorithms rely on
0.0919754529	this methodology
0.0919635395	size of
0.0919617897	to steer
0.0919610477	to aid
0.0919520828	always available
0.0919512361	queries based on
0.0919445013	a review of
0.0919391392	the error probability
0.0919280603	the idea of
0.0919118536	studies indicate
0.0919114666	advancements in
0.0919071917	variety of problems
0.0918974766	set of requirements
0.0918968062	paper also provides
0.0918854502	seemed to
0.0918819357	large variety
0.0918749979	comprehensive overview of
0.0918726598	some experimental results
0.0918714350	the optimality of
0.0918474093	design of multi
0.0918347054	the potential
0.0918343992	for next generation wireless
0.0917927960	the problem of maximizing
0.0917798724	a simple model
0.0917741026	the system model
0.0917652132	our main results
0.0917592691	the number of packets
0.0917507277	amount of data
0.0917363215	well known technique
0.0917355954	learning algorithms for
0.0917331001	a process
0.0917278949	a taxonomy of
0.0917269163	the minimum number of
0.0917245004	able to create
0.0917209065	the conditional probability
0.0917167441	development and implementation of
0.0917134668	the viewpoint of
0.0917130940	vary over
0.0916974505	the core
0.0916798070	allocation among
0.0916693002	matching algorithm for
0.0916641285	the information society
0.0916606920	to automatically determine
0.0916493628	second experiment
0.0916353636	building block for
0.0916285665	a finite
0.0916223703	a general form
0.0916074865	a small portion of
0.0916015457	measurement results show
0.0915687493	this task
0.0915550336	more severe
0.0915505373	played by
0.0915467952	in depth
0.0915328265	a deterministic algorithm
0.0915312558	several reasons
0.0915214372	reasoning over
0.0915166100	limited by
0.0915156743	a strong correlation
0.0915126625	more beneficial
0.0915047917	the main factors
0.0915018064	a high density
0.0914928108	than previous approaches
0.0914763828	based on analyzing
0.0914646049	an appropriate
0.0914624668	a distance
0.0914549532	large variety of
0.0914495471	artifacts such as
0.0914402356	avoided by
0.0914342092	an activity
0.0914295449	the trade off
0.0913941888	the global minimum
0.0913777471	an important parameter
0.0913584969	unavailability of
0.0913571400	an observational
0.0913464365	a large fraction of
0.0913453177	questions related
0.0913412420	vector machine for
0.0913398979	tolerance techniques
0.0913351285	classifiers based on
0.0913346937	crucial to
0.0913314446	the mining process
0.0913256690	wanted to
0.0913203178	by conducting
0.0913142600	large set of
0.0913088075	by removing
0.0912903899	the extent of
0.0912819673	to form
0.0912786871	a novel scheme
0.0912723601	more valuable
0.0912628972	study explored
0.0912601476	in order to manage
0.0912566447	the arm
0.0912524483	the suffix
0.0912480421	an algorithm for computing
0.0912445439	a very large number of
0.0912423438	communicated to
0.0912238527	the area overhead
0.0912134668	the rest of
0.0912043604	a biometric
0.0911992106	valuable tool
0.0911875104	the whole process
0.0911871224	the spectral efficiency
0.0911838744	a database
0.0911741721	the rest
0.0911731986	in unknown environments
0.0911612899	well approximated
0.0911532873	an information
0.0911472119	analysis and optimization of
0.0911445776	algorithm experimental results show
0.0911436585	optimization based on
0.0911383327	available online
0.0911276990	suppressed by
0.0911262115	deterioration of
0.0911254557	for image denoising
0.0911186920	the control design
0.0910959304	the heat
0.0910940772	range of application
0.0910882478	simulation model for
0.0910855118	plug in for
0.0910823543	routing scheme for
0.0910425133	easy task
0.0910351707	to activate
0.0910314301	given graph
0.0910284153	two separate
0.0910273831	universality of
0.0910271169	a model checking
0.0910209682	intended to
0.0910180950	possible ways
0.0910074972	a short period
0.0909958539	a word
0.0909836666	the hessian
0.0909785003	the high dimensionality
0.0909776928	further improve
0.0909682124	an algorithm called
0.0909447340	the main technical
0.0909441177	the hash function
0.0909349278	first level
0.0909099323	the most frequent
0.0909040349	systematic study of
0.0908980553	a metamodel
0.0908928043	performance improvement of
0.0908902226	a multidimensional
0.0908887357	to attach
0.0908870002	the detection process
0.0908607078	shared between
0.0908506458	further studies
0.0908487281	the general problem
0.0908155656	a two player
0.0908146558	exploited by
0.0907997786	no systematic
0.0907929547	a principled way
0.0907627356	applied to image
0.0907547091	the context
0.0907500490	the throughput of
0.0907481354	without relying on
0.0907470536	the estimated
0.0907402097	probabilistic framework for
0.0907371652	a fault
0.0907275549	the memory requirement
0.0907253377	students use
0.0907185230	a good approximation
0.0907098525	the current implementation
0.0906990852	swarm optimization for
0.0906903702	a discrete
0.0906841368	architecture consists of
0.0906805669	aims to present
0.0906770963	a nondeterministic
0.0906770163	this phenomenon
0.0906753598	by treating
0.0906713131	practical implementation of
0.0906693987	converter with
0.0906663030	large values
0.0906655670	the control algorithm
0.0906603136	a branch and bound
0.0906557748	the lattice
0.0906230932	important features of
0.0906156975	at most 2
0.0906087861	algorithm for dynamic
0.0906049389	the control signal
0.0906019859	the task of finding
0.0905907585	the main aim of
0.0905851285	platform based on
0.0905833289	inspired from
0.0905797856	results in terms
0.0905780291	with disabilities
0.0905770963	a wrapper
0.0905762104	engage in
0.0905693237	a reduced set of
0.0905560636	the unweighted
0.0905524684	an increasing need
0.0905437618	results comparable to
0.0905373212	event simulation
0.0905328761	between consecutive
0.0905288665	the coverage area
0.0905269014	throughput than
0.0905208953	services such as
0.0905107748	potential to provide
0.0905097863	the experimental data
0.0905070570	the canonical
0.0905003636	the retrieval performance
0.0904834958	any modification
0.0904820762	able to select
0.0904597735	required to
0.0904438023	the existing method
0.0904430494	a personal
0.0904404563	new lyapunov
0.0904343864	given topic
0.0904180888	a computerized
0.0904102220	about half
0.0904083458	the experiment
0.0903987829	the proposed representation
0.0903979833	the temperature
0.0903859223	used to capture
0.0903812220	a significant
0.0903762617	variety of data
0.0903658272	estimation algorithm for
0.0903518138	graphs without
0.0903436910	main drawback of
0.0903417897	used to verify
0.0903341867	to traverse
0.0903031625	the theory of
0.0902968549	this paper tackles
0.0902926550	use of
0.0902749532	many data mining
0.0902700595	a conversation
0.0902645963	a chromosome
0.0902634347	the amount of information
0.0902522240	increase in
0.0902492725	the absence of
0.0902477754	transferred from
0.0902459565	the sole
0.0902369219	based tool for
0.0902179301	substantial amount of
0.0902159772	mode control of
0.0902063325	on chips
0.0902020731	illustrated with
0.0901931439	current research on
0.0901898405	a set
0.0901891015	a simple but efficient
0.0901828560	a computer based
0.0901794940	the risk
0.0901618369	the required number of
0.0901575186	a fingerprint
0.0901347178	natural generalization
0.0901109434	a set of rules
0.0900949188	optimal algorithm for
0.0900796554	contributed by
0.0900788397	not adequately
0.0900615996	each event
0.0900598753	popular technique
0.0900349603	the relative performance of
0.0900265799	probabilistic approach to
0.0900113120	motion control of
0.0900076712	db over
0.0900069914	preliminary work
0.0900013543	a look
0.0900012646	well known algorithms
0.0899915495	a note
0.0899784015	to comply
0.0899659272	classification method for
0.0899569996	computer interfaces
0.0899452758	the medium access control
0.0899283688	methods rely on
0.0899113828	high accuracy in
0.0898838481	a software engineering
0.0898812768	approximation algorithm with
0.0898804406	starting at
0.0898804340	a new multi
0.0898678008	computational modeling of
0.0898596981	the error propagation
0.0898496330	design methodology for
0.0898478598	a controllable
0.0898430324	important class of
0.0898406967	a transaction
0.0898363969	an efficient and scalable
0.0898283555	a factor of 2
0.0898157485	segmentation method for
0.0897997694	known about
0.0897930853	a computational
0.0897903899	the beginning of
0.0897837573	a stepwise
0.0897798465	to vote
0.0897722266	any pair of
0.0897635065	competitiveness of
0.0897579393	the moment
0.0897574080	a digital
0.0897382053	the relationship between
0.0897359986	by taking into account
0.0897145553	for solving
0.0897114002	via simulations
0.0896947193	a quantum
0.0896934134	a chip
0.0896906059	and time consuming
0.0896864880	a high degree of
0.0896818975	the original method
0.0896777495	method in addition
0.0896744116	the above problem
0.0896723819	the computational burden
0.0896549817	a movie
0.0896486532	quantification of
0.0896414504	more refined
0.0896365782	used to infer
0.0896364959	the framework of
0.0896321893	each state
0.0895886984	a finite difference
0.0895874517	better generalization
0.0895811140	more informed
0.0895802241	the recognition rate
0.0895789523	the inverse problem
0.0895751812	lies at
0.0895667203	system using
0.0895631156	a common framework
0.0895481976	intractability of
0.0895440114	achieve good
0.0895238635	by decomposing
0.0895141585	a typical
0.0895131510	a rectangular
0.0895053958	in order to construct
0.0894944489	used to retrieve
0.0894893152	the outage
0.0894884788	the recognition accuracy
0.0894787639	lot of work
0.0894749573	practical value
0.0894522568	a comprehensive set of
0.0894371381	the same performance as
0.0894306464	an operator
0.0894024722	residing in
0.0893948894	the decoder
0.0893899902	graph into
0.0893857417	best suited for
0.0893802298	long periods of
0.0893740383	a few
0.0893713923	in order
0.0893643175	linearly with
0.0893607247	a numerical method
0.0893582672	less complex
0.0893491285	reduction of
0.0893450503	process based on
0.0893364755	query language for
0.0893346261	even after
0.0893326848	characterized as
0.0893313801	prerequisite for
0.0893295629	the major issues
0.0893295341	of crosscutting
0.0893118107	while limiting
0.0893063447	scheme with
0.0892768774	the researcher
0.0892659771	theoretical properties of
0.0892640224	in real environments
0.0892628030	the fulfillment
0.0892547170	the false alarm
0.0892533822	the global asymptotic
0.0892466580	to boost
0.0892330640	the quality
0.0892116197	a new algorithm called
0.0892105771	the line of sight
0.0891903505	the similarity measure
0.0891888198	a simplified
0.0891780151	certain assumptions
0.0891750360	good agreement with
0.0891576672	the experimental
0.0891401233	the reference
0.0891375315	a recurrent neural
0.0891228114	reformulation of
0.0891217318	the secondary
0.0891119981	key properties of
0.0891089903	exist between
0.0891039362	evaluated on
0.0891016667	a composite
0.0890947270	the utility of
0.0890809820	design and deployment of
0.0890694604	allows users
0.0890625703	the phase space
0.0890454303	set of graphs
0.0890382053	the lack of
0.0890310268	oriented approach to
0.0890204098	the major factors
0.0890158033	the face image
0.0890107893	most well known
0.0889993832	a new implementation
0.0889979354	the major challenge
0.0889971286	the uplink
0.0889881397	the scientific literature
0.0889840446	the best previously
0.0889802462	ported to
0.0889756772	into two types
0.0889699876	as building blocks
0.0889698292	the identification of
0.0889686356	listening to
0.0889557821	in order to illustrate
0.0889518541	relatively complex
0.0889508282	direct comparison of
0.0889418896	recent work on
0.0889357569	to reinforce
0.0888947012	the most widely
0.0888683124	the success rate
0.0888468136	infinite number
0.0888264357	the total power
0.0888233506	method proposed in
0.0888184537	comprehensive experimental
0.0888137454	natural way
0.0887997998	any kind of
0.0887812805	optimal number of
0.0887788517	the wavelet
0.0887675390	to formalize
0.0887548762	the student
0.0887459233	an integrated framework
0.0887455343	an extremely
0.0887451541	new metric
0.0887443084	a prespecified
0.0887389703	coming from different
0.0887378149	desirable properties of
0.0887369391	the control input
0.0887228126	the total cost
0.0887219644	three well known
0.0887187117	solution for
0.0887155716	the improved algorithm
0.0887134668	a factor of
0.0887010804	special structure of
0.0886989445	indices for
0.0886891645	a dynamic programming
0.0886875590	extraction based on
0.0886582790	essential task
0.0886306563	the chromatic
0.0886268586	the desired properties
0.0886156635	services in order
0.0886075461	control mechanism for
0.0885999925	available services
0.0885857004	well developed
0.0885717761	grown by
0.0885626573	a topic
0.0885605539	operates on
0.0885593462	an inference
0.0885463270	dominating set of
0.0885407049	corresponding to
0.0885214016	wide spectrum of
0.0885181368	the possibility
0.0885157952	range of
0.0885110765	protocol provides
0.0885093855	channel model for
0.0885051594	estimation from
0.0885035385	each grid
0.0884743368	a grid environment
0.0884565077	quite complex
0.0884561666	results presented here
0.0884449596	unification of
0.0884449223	an irregular
0.0884439037	a jump
0.0884269163	a finite set of
0.0884233358	conducted on
0.0884157198	the main objective
0.0884057956	the second level
0.0883978299	a representative set
0.0883835547	the most active
0.0883778818	the key challenges
0.0883753493	changes over time
0.0883722107	on synthetic data
0.0883665033	used to reduce
0.0883441782	first contribution
0.0883353708	to mine
0.0883312072	exploration of
0.0883291162	state changes
0.0883105749	evaluation based on
0.0883046047	systems such as
0.0883024178	many studies
0.0882655967	significantly different from
0.0882627328	the selected features
0.0882579729	view of
0.0882577544	a software product
0.0882491750	brief survey
0.0882416081	step forward in
0.0882221176	represented in
0.0882087790	temporal dynamics of
0.0882006499	while still
0.0881978425	signals from
0.0881962850	also presented
0.0881920514	the integration of
0.0881874634	used to store
0.0881490233	generation of
0.0881456445	the state estimation
0.0881433765	range of data
0.0881349034	within organizations
0.0881344190	role of
0.0881302565	field of human
0.0881275104	advantages and disadvantages of
0.0881249172	to help
0.0881136841	an appealing
0.0881062634	analysis of multiple
0.0880807204	the sensed data
0.0880574735	a graphical model
0.0880528316	unsupervised learning of
0.0880526673	order to overcome
0.0880484550	different levels of
0.0880422310	a system of linear
0.0880285077	the eigen
0.0880202386	physical properties of
0.0880127633	a negotiation
0.0879939037	a lexicon
0.0879910592	each target
0.0879796769	reconstruction based on
0.0879706693	during execution
0.0879652401	by abstracting
0.0879641081	control schemes for
0.0879635395	efficiency of
0.0879445678	four steps
0.0879390890	the mean square error
0.0879169461	performance assessment of
0.0879150254	number of simultaneous
0.0878998578	concrete example
0.0878985361	different kinds
0.0878839477	this survey
0.0878690374	low levels
0.0878675415	by altering
0.0878674337	and storage resources
0.0878629067	an advanced
0.0878496577	achieve near
0.0878473886	instantiation of
0.0878387010	escape from
0.0878307124	explore whether
0.0878305228	thirds of
0.0878176218	increasing availability
0.0878161299	each concept
0.0878123786	the one step
0.0877927960	the problem of generating
0.0877893578	each classifier
0.0877837358	an entity
0.0877837358	an overlay
0.0877434364	automata with
0.0877417974	improved by
0.0877311350	filled with
0.0877156176	often involves
0.0877052678	composed of two
0.0877048840	a nonempty
0.0877038771	the free space
0.0876950167	more transparent
0.0876791409	all n
0.0876664096	if n
0.0876639451	allowed to
0.0876610844	detection performance in
0.0876589337	more complete
0.0876565299	the particle swarm
0.0876559757	designed to allow
0.0876534272	clustering method for
0.0876308267	the training samples
0.0876126121	an accuracy of
0.0876104933	the vector space
0.0876095495	changes made
0.0876087895	the packet delivery
0.0876046154	the stability analysis
0.0876045895	a road network
0.0876002320	a two way
0.0875967004	the training
0.0875925898	to achieve maximum
0.0875871840	the side information
0.0875667241	the owner
0.0875398400	treatment of
0.0875285766	to modulate
0.0875277733	lies on
0.0875276103	sampled from
0.0875262403	after applying
0.0875171786	use of electronic
0.0874944371	order to maximize
0.0874899342	heuristic algorithm for
0.0874889227	experimental analysis of
0.0874878208	investigations into
0.0874774681	examination of
0.0874701670	the reduced order
0.0874694011	two well known
0.0874545324	a bounded number of
0.0874467068	different scenarios
0.0874352049	an extension to
0.0874338486	provide access to
0.0873979078	a limited set of
0.0873905440	characteristic of
0.0873883026	the outer
0.0873758079	contextual information in
0.0873743848	check codes
0.0873636397	the experiment results
0.0873341387	a resource allocation
0.0873295227	the number of states
0.0873266682	to reason about
0.0873245437	present value
0.0873154004	a special type of
0.0873144262	existing methods for
0.0873062547	adaptable to
0.0873031625	the generation of
0.0872968084	different degrees of
0.0872950376	users ability to
0.0872840475	a mobile environment
0.0872734685	ranked list of
0.0872584540	the exterior
0.0872578185	crucial for
0.0872560742	unknown but
0.0872445875	a weighted graph
0.0872393375	the first part
0.0872385347	the number of classes
0.0872341787	different disciplines
0.0872138474	the problem of deciding
0.0872134347	a certain class of
0.0872031109	a tile
0.0872028692	a gamma
0.0871871419	allocation algorithm for
0.0871747203	a random
0.0871707249	our proposal
0.0871558488	an outlook
0.0871437898	compete for
0.0871329833	the convergence
0.0871302061	computation of
0.0871204337	the original algorithm
0.0871177733	to expose
0.0871042364	the optimal performance
0.0870925884	the sensor data
0.0870890676	each candidate
0.0870539132	four times
0.0870303861	aims to propose
0.0870282553	produces better
0.0870102594	represented in terms of
0.0869997291	recent research on
0.0869995587	minimisation of
0.0869978663	provide examples of
0.0869976183	the binary erasure
0.0869957693	intends to
0.0869804162	modeling based on
0.0869707428	the ground
0.0869692229	a tangible
0.0869688255	the design principles
0.0869637805	communications among
0.0869460995	deployed in
0.0869454779	correlation coefficient of
0.0869375737	fulfillment of
0.0869280603	the advantage of
0.0869245753	each level
0.0869241383	a previous study
0.0869198633	approximate solution of
0.0869193962	used to update
0.0869180533	the domination number
0.0869077612	the overall system
0.0869041715	a graphical representation
0.0868777150	the intermediate nodes
0.0868686462	different roles
0.0868658299	holistic approach to
0.0868571946	the degree to
0.0868489557	function of
0.0868460801	two extensions
0.0868436184	the maximum number
0.0868420727	a mixed
0.0868403114	a plug in
0.0868351082	than conventional
0.0868170977	any point
0.0868144157	a localized
0.0868073349	want to find
0.0868069334	support system based
0.0867980770	the algorithm performance
0.0867967415	building block of
0.0867903899	the suitability of
0.0867901736	protocol uses
0.0867699087	the developer
0.0867632004	an ultra
0.0867561415	the principal components
0.0867559487	used to enhance
0.0867544372	a joint
0.0867534275	a similar way
0.0867524483	a brand
0.0867502824	2008 wiley periodicals inc networks
0.0867452457	into two groups
0.0867329961	a cache
0.0867171618	the echo
0.0866985397	various attacks
0.0866846624	each year
0.0866551953	than others
0.0866509149	the image data
0.0866401233	the discrete
0.0866381817	data sets from
0.0866200386	filter based on
0.0866151382	much better performance
0.0866042091	the linear complexity
0.0866020578	a centralised
0.0865958555	simulation framework for
0.0865889633	a software
0.0865829534	able to maintain
0.0865693653	specific characteristics of
0.0865595326	to utilize
0.0865487861	a limited number
0.0865434186	knowledge discovery in
0.0865407049	as well
0.0865378264	the overlay network
0.0865239565	sufficient number of
0.0865090390	space complexity of
0.0864912753	new concepts
0.0864889557	theory of
0.0864645739	predict whether
0.0864607570	second step
0.0864540440	an algorithm to compute
0.0864441837	the maximal
0.0864375590	construction based on
0.0864372930	emergence of new
0.0864355095	major concern in
0.0864341870	to sleep
0.0864021627	often contain
0.0864014290	algorithm relies on
0.0863957814	a mandatory
0.0863831608	any n
0.0863690994	approach leads
0.0863584795	feedback about
0.0863573714	a parametric model
0.0863340851	the learner
0.0863213629	amount of traffic
0.0863135389	the boundary
0.0863008544	between proteins
0.0862989290	an uncertain
0.0862941161	check if
0.0862826672	the message
0.0862812612	size while
0.0862788573	high level of
0.0862731738	a language
0.0862706839	an algorithm for
0.0862705652	the road network
0.0862644673	a 3 dimensional
0.0862556384	the quality of service
0.0862551077	general case of
0.0862533776	the design method
0.0862461293	a particular
0.0862426336	requiring only
0.0862304688	analytical framework for
0.0862257258	this property
0.0862233862	good trade off
0.0862217400	considerable attention in
0.0862160056	many reasons
0.0862149877	able to exploit
0.0862069589	the covariance
0.0861961677	the most advanced
0.0861912913	needed for
0.0861848019	while requiring
0.0861809354	key aspect of
0.0861685824	a powerful
0.0861666656	the model includes
0.0861455644	an easy
0.0861325005	a story
0.0861265016	scheme uses
0.0861250888	important parameter
0.0860951744	the rat
0.0860940966	the need of
0.0860914755	number of studies
0.0860858373	used to optimize
0.0860675415	an impressive
0.0860500169	in order to handle
0.0860366079	the recently introduced
0.0860256002	a skeleton
0.0860250954	the classification process
0.0860125255	ideas from
0.0860019580	grid system
0.0859961396	number of degrees
0.0859909500	the first system
0.0859883401	best combination
0.0859712236	the slope
0.0859698292	the output of
0.0859644601	research work
0.0859586429	risks associated
0.0859580746	the optimal values
0.0859551825	even larger
0.0859337898	optimization problem with
0.0859307700	rid of
0.0859221681	of interest
0.0859185882	the most important factor
0.0859148776	the state feedback
0.0859074391	also included
0.0858843340	not guaranteed
0.0858802453	scheme against
0.0858675725	the restored
0.0858670357	data generated from
0.0858512533	a time domain
0.0858461217	engineering re
0.0858211366	the concept
0.0858134126	a software application
0.0858105505	manipulator with
0.0857992125	different contexts
0.0857990333	a significant influence
0.0857968817	a large portion of
0.0857954077	great importance in
0.0857850514	go through
0.0857840747	substantially better
0.0857695321	computational complexity of
0.0857667112	the likelihood ratio
0.0857633679	a large range of
0.0857544667	the current practice
0.0857543455	asymptotics of
0.0857484238	retrieved by
0.0857421945	problem consists of
0.0857411213	to run
0.0857273283	heuristic algorithms for
0.0857263567	among neighboring
0.0857056118	received by
0.0856900810	used by
0.0856764926	to browse
0.0856551730	control law for
0.0856420345	deployment of
0.0856403537	good correlation
0.0856301205	the digital library
0.0856299697	multitude of
0.0856223498	new insights into
0.0856215815	the first version
0.0856024018	compactness of
0.0855895191	optimal solutions for
0.0855886692	small subset of
0.0855854400	applications in order
0.0855813960	the sample
0.0855807780	a classification
0.0855695727	to reduce power
0.0855679604	behaviour of
0.0855384483	an inexpensive
0.0855369679	a bilingual
0.0855307173	many companies
0.0855295722	to accurately estimate
0.0855147873	dynamic characteristics of
0.0854986339	a constant
0.0854960717	each local
0.0854934765	results obtained on
0.0854660180	appeared in
0.0854597795	searching for
0.0854542321	the burden of
0.0854481821	do not allow
0.0854285077	the organ
0.0854154129	optimization approach to
0.0854138113	done by
0.0854079928	an infinite number of
0.0854016780	used to describe
0.0853992086	a design
0.0853874877	the number of paths
0.0853840040	to bridge
0.0853796219	each path
0.0853759883	system for
0.0853723693	the minimum mean square error
0.0853691069	based architecture for
0.0853660703	diseases such as
0.0853581134	further enhance
0.0853542142	the optimal parameters
0.0853134668	the effectiveness and efficiency of
0.0853122647	comparing with other
0.0853120765	viable alternative to
0.0853116300	an artificial neural
0.0853036658	stochastic nature of
0.0852990407	occur in
0.0852820600	easily applied to
0.0852795277	in advance
0.0852758755	the main drawback
0.0852752864	slightly different
0.0852740180	utilization while
0.0852721897	a large area
0.0852669501	to anticipate
0.0852653574	currently known
0.0852473271	the evaluation
0.0852473271	the complexity
0.0852455343	by extending
0.0852421603	d space
0.0852417959	the key technology
0.0852305067	different traffic
0.0852298460	the unscented
0.0852134523	signals in order
0.0852069007	learnt from
0.0851976662	the sparsity
0.0851941191	programming approach to
0.0851866123	implemented in real
0.0851847277	to model complex
0.0851846420	none of
0.0851815377	method consists of
0.0851674507	validation of
0.0851619882	a solution to
0.0851567193	an alternative way
0.0851535906	metaphor for
0.0851408033	the fuzzy set
0.0851356404	the number of relays
0.0851356404	the number of particles
0.0851325005	a codebook
0.0851238171	than other methods
0.0851037112	computed from
0.0850964917	the unlicensed
0.0850949091	required by
0.0850815377	methods proposed in
0.0850739802	most important aspects
0.0850654009	a laptop
0.0850602863	support tool for
0.0850484617	the availability of
0.0850471764	a multi core
0.0850344395	ratio of
0.0850230574	the classic
0.0850154347	thought to
0.0850043896	a trade off
0.0849966197	the reliability
0.0849953596	analysis indicates
0.0849864596	a natural extension
0.0849726139	between successive
0.0849607260	a security
0.0849536318	by calculating
0.0849366197	in order to capture
0.0849314183	to enumerate
0.0849215666	order to promote
0.0849035766	to reconfigure
0.0849008748	by inserting
0.0848761753	the main contribution
0.0848761404	time o
0.0848685765	in order to exploit
0.0848661828	requested by
0.0848594416	placed at
0.0848489557	solution of
0.0848472207	both theoretical and practical
0.0848398324	main research
0.0848203509	quantitative measure
0.0848114251	any type
0.0848055380	a large amount of
0.0847992942	problems caused by
0.0847877588	the encoder
0.0847827612	the similarity of
0.0847762378	made possible by
0.0847753367	designated as
0.0847724140	a relaxed
0.0847689013	a multi agent system
0.0847678593	routed to
0.0847657075	thus improving
0.0847599396	going through
0.0847505208	based model of
0.0847367433	analysis of multi
0.0847288935	system configurations
0.0847140299	a progressive
0.0847040085	example shows
0.0846885852	with vertex set
0.0846808263	scheme provides
0.0846771459	used to check
0.0846748130	the true
0.0846658020	diagnosis based on
0.0846563724	set of input
0.0846466496	protocol allows
0.0846382739	localization based on
0.0846307910	a feedback control
0.0846285754	a batch
0.0846214942	on par with
0.0846187634	set of techniques
0.0846006418	a multiplicative
0.0845942901	a field programmable
0.0845692396	problem of multiple
0.0845686238	optimal policy for
0.0845517987	the medial
0.0845411042	basis for
0.0845409727	between neighboring
0.0845160038	a biased
0.0845074127	the nominal
0.0844970838	perform better
0.0844919870	an integrated approach to
0.0844912875	real data from
0.0844886171	probability 1
0.0844830138	more than 20
0.0844762610	formal description of
0.0844679604	variation in
0.0844380788	performance degradation due
0.0844320121	a continuous time
0.0844245348	shorter time
0.0844205254	any non
0.0844080222	simple yet
0.0843871362	a small fraction of
0.0843834985	equilibrium point of
0.0843797930	nodes along
0.0843754563	encountered in
0.0843735856	does not increase
0.0843651311	the trustworthiness of
0.0843585683	a modified version of
0.0843560387	network architecture for
0.0843551195	a committee
0.0843476067	sent by
0.0843381551	order to achieve
0.0843360516	one order of magnitude
0.0843207036	time to complete
0.0843201063	the same class
0.0843128000	m fading
0.0843097531	the network design
0.0842946345	an electrical
0.0842913950	concatenation of
0.0842814613	paper consists of
0.0842742703	as evidenced
0.0842714113	3 times
0.0842703318	the objective of minimizing
0.0842678407	a well designed
0.0842300309	important component of
0.0842134668	to search for
0.0842130251	a natural language
0.0842092545	the interaction
0.0841939037	a landmark
0.0841931545	system stability
0.0841898405	the accuracy
0.0841898405	the implementation
0.0841893964	the fuzzy rules
0.0841881541	object recognition in
0.0841854450	the transmission
0.0841743534	trivial task
0.0841702052	each mode
0.0841653812	the posterior
0.0841627700	a discrete time
0.0841471691	an average accuracy of
0.0841428188	the normalized
0.0841421185	identified as
0.0841350686	the previously best known
0.0841333554	the human visual system hvs
0.0841309207	the execution time of
0.0841298213	cmos technology with
0.0841216988	practical use
0.0841180248	overall goal
0.0841151283	the choice of
0.0841148244	each pair
0.0841140113	a 3d model
0.0841085161	collection of
0.0840861674	shared by
0.0840649238	the 2d
0.0840562305	important requirement
0.0840493982	a good balance between
0.0840376285	research related to
0.0840367609	the fuzziness
0.0840161703	the process of developing
0.0840077877	representation based on
0.0839903815	demonstrated via
0.0839870782	empirical study of
0.0839870764	new upper
0.0839693582	to work with
0.0839642653	other schemes
0.0839642193	other objects
0.0839432283	communication overhead in
0.0839349603	a complete set of
0.0839339632	to succeed
0.0839241428	the tandem
0.0839228792	relative position of
0.0839219455	empirical analysis of
0.0839190426	to access
0.0839133912	the experiment result
0.0839116072	this situation
0.0839067158	novel ways
0.0839065354	als scheme
0.0838910740	the magic
0.0838812954	an exciting
0.0838795192	a normal distribution
0.0838606744	without adding
0.0838579120	modeling approach for
0.0838512239	the classification performance
0.0838446065	the major problems
0.0838246261	lying on
0.0838101321	a nonconvex
0.0837821489	the building blocks
0.0837710756	use of computers
0.0837648218	order to reduce
0.0837648172	decreased by
0.0837632199	the first algorithm
0.0837609781	the difficulty of
0.0837475412	evidence about
0.0837471692	natural extension of
0.0837331924	between genes
0.0837271912	the idea
0.0837178516	to collect information
0.0837154285	absolute value of
0.0837103760	a significant portion
0.0837086434	an iterated
0.0837083575	diagnosis of
0.0837017153	the detection probability
0.0836917106	the development
0.0836914791	mathematical model for
0.0836868654	a legal
0.0836730113	proposed to
0.0836697136	parameterization of
0.0836642727	the experimental setup
0.0836608221	method presented in
0.0836588272	gained from
0.0836576672	the number
0.0836547445	human being
0.0836429158	experimental study on
0.0836318163	to further enhance
0.0836305894	the reference model
0.0836275476	to gauge
0.0836266978	some numerical experiments
0.0836117170	problem based on
0.0836072653	no guarantee
0.0836067744	at most n
0.0835826128	the proposed tool
0.0835790678	a brief description of
0.0835707472	show significant improvements
0.0835656777	a constant number
0.0835653383	the unknown parameters
0.0835583567	explanation of
0.0835502872	the finite difference
0.0835393101	the chromatic number
0.0835379802	described by
0.0835335877	the celebrated
0.0835285594	the mobile station
0.0835167661	domain knowledge in
0.0835040149	by allowing
0.0835007788	a linear time algorithm for
0.0834971286	the screen
0.0834963794	part 1
0.0834962249	an urgent
0.0834949450	the number of sources
0.0834913134	research topics in
0.0834738118	hot topic in
0.0834607700	an emotion
0.0834403046	choice of
0.0834392266	arise due to
0.0834316701	an example to illustrate
0.0834289314	intended for use
0.0834276901	the critical path
0.0834116335	system designers
0.0833908950	by several orders of magnitude
0.0833884077	the vast majority
0.0833799812	one hand
0.0833612973	able to determine
0.0833601321	a supervisory
0.0833581113	a new image
0.0833575320	superior to other
0.0833476128	the current context
0.0833409209	most salient
0.0833257223	the respective
0.0833251812	distinguished by
0.0833246059	the fractional
0.0833188056	a critical problem
0.0833059720	comprehensive study
0.0832906967	an application example
0.0832905423	devices like
0.0832903899	the functionality of
0.0832886649	the activation functions
0.0832853304	statistical approach to
0.0832842857	signal to
0.0832720869	an affordable
0.0832445994	each face
0.0832298543	constructed from
0.0832288159	an arbitrary number
0.0832223490	the main results
0.0832179203	the profitability
0.0832150012	approach to provide
0.0832149669	by correlating
0.0832074700	the segmentation results
0.0832017646	the official
0.0831946845	a decision
0.0831920280	enhanced version
0.0831724278	critical part
0.0831673442	particular emphasis on
0.0831653812	the instantaneous
0.0831649357	self organization of
0.0831568567	the diversity gain
0.0831527365	a gradual
0.0831513971	a time division
0.0831509059	the converse
0.0831494516	a large number of users
0.0831455637	interesting properties of
0.0831405307	channels with
0.0831365671	to see if
0.0831358771	in order to demonstrate
0.0831291424	repeatability of
0.0831193230	do not consider
0.0831155816	any order
0.0831152223	successfully used in
0.0831151283	the definition of
0.0831000014	a deeper understanding of
0.0830592559	this study attempts
0.0830428018	a distributed network
0.0830317769	the social web
0.0830063893	rate performance of
0.0830045861	to pick
0.0829989097	efficient design of
0.0829884222	prevalence of
0.0829707321	a controlled
0.0829691878	analytical solution of
0.0829499358	a bibliometric
0.0829463572	same type
0.0829437376	the workload
0.0829421887	the equilibrium point
0.0829351810	solver for
0.0829208195	the scope
0.0829193005	the centroid
0.0829050109	a deterministic
0.0829017940	capacity under
0.0828976912	tracking performance of
0.0828874055	key issue in
0.0828832487	the hidden markov model
0.0828687980	relative error of
0.0828660796	in order to implement
0.0828432088	especially useful
0.0828391411	a widely accepted
0.0828235044	different clusters
0.0828123410	a circle
0.0828007700	a mathematical framework
0.0827827612	the production of
0.0827823892	recently proposed as
0.0827805881	a pipelined
0.0827724928	unlikely to
0.0827256622	a recursive algorithm
0.0827244559	several years
0.0827239957	to resist
0.0827162943	a boolean function
0.0827155272	the system to
0.0827106836	nodes in order
0.0827025695	various approaches
0.0826986693	an integral part
0.0826985081	an important technique
0.0826897477	study to evaluate
0.0826879336	systems subject to
0.0826836583	the quality of service qos
0.0826836537	uptake of
0.0826826376	through experimentation
0.0826761454	an interference
0.0826696865	diversity order of
0.0826632828	most commonly
0.0826567928	the distance
0.0826560596	the user interaction
0.0826491982	able to track
0.0826448949	the design parameters
0.0826418207	a sender
0.0826335572	an inertial
0.0826270317	often suffer
0.0826174596	mixture of
0.0826024360	the large size
0.0825992427	formulation of
0.0825991918	the objective
0.0825958390	to shorten
0.0825952208	look into
0.0825881425	extremely difficult to
0.0825840666	trustworthiness of
0.0825818367	able to find
0.0825479441	at least 2
0.0825461553	the sensitivity
0.0825439644	the multi
0.0825342598	not easy
0.0825291382	good balance
0.0825268045	chaos in
0.0825048756	the dominant
0.0824987686	the number of points
0.0824947809	the traditional method
0.0824945924	previous studies on
0.0824889557	change in
0.0824743472	the course of
0.0824743049	case study based on
0.0824741872	a person
0.0824704685	a photo
0.0824643403	interface for
0.0824414399	more relevant
0.0824313745	particularly suitable for
0.0824064243	features in order
0.0824032199	the first approach
0.0823995419	any desired
0.0823968770	an architecture based
0.0823856316	the feature points
0.0823699488	in 3d space
0.0823636732	the hardware complexity
0.0823527503	a directed acyclic
0.0823486622	previously used
0.0823442987	fundamental problems in
0.0823393293	this latter
0.0823391306	carried out using
0.0823315424	detrimental to
0.0823268430	alternative to
0.0823178752	the main aim
0.0823172811	tractability of
0.0823078892	the design flow
0.0822762353	stabilized by
0.0822748644	the system reliability
0.0822711802	transparent to
0.0822445138	this deficiency
0.0822316244	error analysis of
0.0822168386	selection problem in
0.0822076513	an economic
0.0822000420	different shapes
0.0821954082	the top level
0.0821950166	the quality of software
0.0821854450	the cost
0.0821815749	a box
0.0821703440	small changes
0.0821698619	other researchers
0.0821636618	begin with
0.0821622214	analysis framework for
0.0821607719	new notion
0.0821480553	a continuum
0.0821472428	different values of
0.0821438516	the number of sensors
0.0821356395	set v
0.0821269163	the main goal of
0.0821071425	a machine learning approach to
0.0821026805	any integer
0.0820913098	each view
0.0820913062	usage of
0.0820846424	parallelization of
0.0820802839	the conceptual framework
0.0820720708	other classifiers
0.0820487870	the famous
0.0820398859	the axiomatic
0.0820363225	a congested
0.0820330510	enrolled in
0.0820209847	experimented on
0.0820124998	for example
0.0820002748	a highly dynamic
0.0819985516	shown to significantly
0.0819933232	uniformity of
0.0819930757	by selecting
0.0819893170	best solutions
0.0819825074	to broaden
0.0819811063	learn from
0.0819765216	the method of
0.0819734638	a good trade off
0.0819733291	overall energy
0.0819707428	the internal
0.0819649452	ranges from
0.0819591322	used to acquire
0.0819577436	better prediction
0.0819569774	a rich set of
0.0819569774	a special class of
0.0819535878	the full potential of
0.0819485369	other factors
0.0819432714	realized through
0.0819427837	different formats
0.0819404694	a mobile platform
0.0819397660	a study on
0.0819246056	the packet loss
0.0819236280	total least
0.0819155071	number of cycles
0.0819149931	variable number of
0.0819110242	to retain
0.0819058914	based interface for
0.0819034513	reliability of
0.0819028012	emergence of
0.0818932857	obtained by using
0.0818929061	the adoption of
0.0818903679	many sources
0.0818894765	position and orientation of
0.0818690808	activities such as
0.0818675970	computational method for
0.0818586634	run on
0.0818517229	capability of
0.0818495946	a wide variety of applications
0.0818489557	sequence of
0.0818439112	transformed to
0.0818418974	the estimation of
0.0818337829	learning environment for
0.0818289116	the world wide
0.0818185096	integrated with
0.0818177960	use of ict
0.0817924316	the evaluation process
0.0817919616	the two algorithms
0.0817808897	both local and global
0.0817751513	different methodologies
0.0817736379	availability of
0.0817728711	the dynamic model
0.0817640043	point numbers
0.0817455584	solvability of
0.0817392940	many interesting
0.0817107143	the peak to average power ratio
0.0817105740	while allowing
0.0816927554	to devise
0.0816917216	different weights
0.0816837898	dynamic range of
0.0816772531	many challenges
0.0816767544	source node to
0.0816625303	solved by means of
0.0816463098	placed on
0.0816250325	system named
0.0816216462	the wireless link
0.0816165895	an explosion
0.0816134668	an array of
0.0816061048	specification of
0.0815957441	early stage of
0.0815893371	constrained by
0.0815785115	problems in order
0.0815783627	without explicitly
0.0815744279	the first part of
0.0815738187	readability of
0.0815688109	the main contributions
0.0815619702	semantic analysis of
0.0815531769	the achieved results
0.0815457626	than existing methods
0.0815437559	a tabletop
0.0815143901	in wireless mobile
0.0815020103	users to specify
0.0814974651	a roadmap
0.0814926646	commonly known
0.0814908031	class of uncertain
0.0814784287	this paper focuses on
0.0814639018	polynomial algorithm for
0.0814638113	by considering
0.0814500102	to negotiate
0.0814364150	modeling approach to
0.0814351334	the main result
0.0814276901	a utility function
0.0814194455	different versions
0.0814190965	to characterise
0.0814123472	an imperative
0.0814103021	conceptual framework for
0.0814040399	direction of
0.0813946324	system for real time
0.0813903899	the novelty of
0.0813699406	particularly well suited for
0.0813502142	concepts like
0.0813460254	a function
0.0813404445	the weight of
0.0813388380	the main problems
0.0813271401	specific types
0.0813192215	environment based on
0.0813159923	the realm of
0.0813134668	a total of
0.0812976073	activated by
0.0812851220	four classes
0.0812779367	the inefficiency
0.0812667957	control strategies for
0.0812627592	a limited number of
0.0812414278	a social
0.0812402642	the current literature
0.0812322507	software implementation of
0.0812245751	the number of components
0.0812219347	by defining
0.0812179203	the automobile
0.0812001018	significantly compared to
0.0811929038	at very low
0.0811916086	the near optimal
0.0811788918	plausibility of
0.0811711518	an outdoor
0.0811648370	1 i
0.0811610301	losses due to
0.0811608423	the feedback loop
0.0811576672	the probability
0.0811455964	an orientation
0.0811399450	a sphere
0.0811309530	a class
0.0811282303	able to represent
0.0811123555	a real data
0.0811078569	a slight
0.0811062472	a simple and efficient
0.0810996326	comes at
0.0810807083	operate on
0.0810741136	tool based on
0.0810625874	an efficient and robust
0.0810594632	axiomatization of
0.0810582004	list of
0.0810566203	metrics based on
0.0810508771	the significance of
0.0810502475	allows developers
0.0810497638	approaches rely on
0.0810464629	the decision process
0.0810458463	a museum
0.0810397795	interface based on
0.0810333455	research topic in
0.0810325841	throughput performance of
0.0810261058	the principal component analysis
0.0810212785	parser for
0.0810177339	improvement in
0.0810147415	used to monitor
0.0810088554	the uniform distribution
0.0810049834	a comparison of
0.0809867860	current status of
0.0809739951	special kind of
0.0809724193	an outlook on
0.0809671548	first formulate
0.0809279268	the algorithm works
0.0809225489	the feature vectors
0.0809172936	analysis and comparison of
0.0809119941	these two factors
0.0809101079	feasibility of
0.0809073410	most successful
0.0809009529	the problem of learning
0.0808979171	a novel two
0.0808960042	the number of cores
0.0808936357	to embrace
0.0808877065	experimental investigation of
0.0808664804	higher number of
0.0808650811	the optimal solutions
0.0808606476	a multiobjective
0.0808494710	the interior
0.0808492725	a novel method for
0.0808367059	the input variables
0.0808358152	an f
0.0808295305	concentration of
0.0808252134	by offering
0.0808231689	this hypothesis
0.0808171936	bound on
0.0808086009	distance from
0.0807942130	proposed method uses
0.0807859857	main source of
0.0807827612	the geometry of
0.0807791167	recently proposed by
0.0807762578	the chord
0.0807734514	bayesian approach to
0.0807729833	the correlation
0.0807487113	major challenge in
0.0807484516	analytical model of
0.0807387251	significant role in
0.0807349150	a pedagogical
0.0807333030	seeks to
0.0807160763	the birth
0.0807059746	integration of information
0.0807047618	the approximation error
0.0806946478	the incidence
0.0806924339	built on
0.0806739578	the design stage
0.0806603877	a high number of
0.0806567928	the location
0.0806481602	conducted to show
0.0806448737	intended for
0.0806422300	the collected data
0.0806369575	similarity search in
0.0806330804	an outer
0.0806286313	learning algorithm with
0.0806111714	administered to
0.0805998500	too often
0.0805424655	used to eliminate
0.0805401365	the number of samples
0.0805358048	a set of guidelines
0.0805341622	a declarative
0.0805290153	any finite
0.0805285718	a computer game
0.0805109173	the forthcoming
0.0805071526	an improved version
0.0805047811	by eliminating
0.0804988200	the evaluation results
0.0804929647	resource management for
0.0804793871	total cost of
0.0804680886	a great number of
0.0804565015	a speed up of
0.0804549534	recovery from
0.0804539714	a framework based
0.0804367437	the intrinsic
0.0804359903	in many fields
0.0804242725	accessible to
0.0804208621	a small amount of
0.0803938915	average error of
0.0803813816	formula for
0.0803771556	more accurately than
0.0803552847	multicasting in
0.0803551448	search over
0.0803450921	increased by
0.0803234595	the business
0.0803130257	preferred over
0.0803047531	a mobile network
0.0802909258	control problem of
0.0802889585	the most important aspects
0.0802876229	the convergence rate
0.0802864381	preferable to
0.0802790113	the solution process
0.0802764271	the key components
0.0802751897	a new heuristic
0.0802718786	usually requires
0.0802619032	one side
0.0802618998	a low
0.0802256829	the union
0.0802226132	various sources
0.0802065927	a one step
0.0802006427	as follows
0.0802004419	strength of
0.0801951277	cluster analysis of
0.0801844571	used to adjust
0.0801640367	a comparative study on
0.0801639938	the computational
0.0801608551	the most
0.0801141994	a new family of
0.0801095688	paper attempts to
0.0801092037	an autoregressive
0.0801069048	a ball
0.0801030608	to escape
0.0801025649	convergence speed of
0.0800872114	higher degree of
0.0800861902	a reputation
0.0800815565	complete set of
0.0800790082	selected by
0.0800785321	multiplicity of
0.0800733728	a layered
0.0800682918	the existing methods
0.0800626018	rate ber of
0.0800589832	while others
0.0800563537	submitted by
0.0800468654	a collision
0.0800464629	the numerical solution
0.0800454895	exploratory study of
0.0800408628	installed on
0.0800396128	the context information
0.0800363225	a cylinder
0.0800324769	the predictive accuracy
0.0800276353	a typology
0.0800092888	so as to achieve
0.0799995349	predictability of
0.0799974262	designed to work
0.0799793705	time t
0.0799731853	an environment
0.0799731411	allocation problem in
0.0799644202	an effective way
0.0799595326	an early
0.0799397660	the correctness of
0.0799366857	the traditional approach
0.0799338310	the early stages
0.0799096434	the proposed detection
0.0799070978	other fields
0.0799012840	trained with
0.0798987428	used to formulate
0.0798771277	other metrics
0.0798684458	some light on
0.0798585468	by choosing
0.0798489557	search for
0.0798368930	process in addition
0.0798207198	the system throughput
0.0798202877	assessment based on
0.0798201631	an algorithm for finding
0.0798159257	at least n
0.0798017607	enhanced by
0.0797924655	used to resolve
0.0797857040	efficient usage
0.0797827612	the price of
0.0797827073	to provide reliable
0.0797820826	comparative study on
0.0797760418	the hybrid model
0.0797640821	to respond
0.0797627723	only partially
0.0797515431	variability in
0.0797247682	to play
0.0797244578	interaction techniques for
0.0797186688	heuristics based on
0.0797156697	a random graph
0.0797093744	to enable efficient
0.0797056838	a gateway
0.0797051566	the formation
0.0797045733	to converge
0.0797014011	different frequencies
0.0797007469	different illumination
0.0796982693	test set of
0.0796959732	a sensor
0.0796888180	analysis tool for
0.0796817322	over internet
0.0796742544	automated theorem
0.0796731664	second group
0.0796693002	reference model for
0.0796527954	preliminary results from
0.0796501792	the performance of wireless
0.0796395930	a general approach
0.0796388509	by doing
0.0796008391	the signal to noise
0.0795956324	the axiom
0.0795920668	employed in order
0.0795898237	the simulation result
0.0795880550	built from
0.0795878473	solutions obtained by
0.0795778728	need to develop
0.0795747312	of learning objects
0.0795653481	the vertex set
0.0795601321	a bivariate
0.0795483210	able to estimate
0.0795480763	small amount of
0.0795221418	the key ideas
0.0795131177	different mobility
0.0795090070	the new technique
0.0795062395	a signal processing
0.0795035934	based techniques for
0.0794905151	provides insights
0.0794866518	the viewer
0.0794798803	piece of
0.0794371891	an indication
0.0794341177	with time dependent
0.0794315634	research presented in
0.0794205495	error mse of
0.0794110924	the viability of
0.0794062156	1 c
0.0794051364	very noisy
0.0793935580	the direction of
0.0793684312	the preceding
0.0793461107	very robust
0.0793431600	most frequently used
0.0793341174	this project
0.0793310996	parameter estimation for
0.0793204212	an aggregation
0.0793203240	the video data
0.0793116129	the overall cost
0.0793083567	exploitation of
0.0793068432	the current status
0.0792789068	most important
0.0792782833	especially important
0.0792752687	to decode
0.0792751662	the joint distribution
0.0792683832	an outstanding
0.0792673687	simulation model of
0.0792629762	process model for
0.0792576602	existing work on
0.0792464024	the temporal dynamics
0.0792319770	an elliptic
0.0792312356	attention from
0.0792258444	a previously developed
0.0792144165	a barrier
0.0792097549	the patient
0.0792060996	modeling language for
0.0791963990	software framework for
0.0791813842	deemed to
0.0791707410	confirmed through
0.0791697296	an empty
0.0791467863	angle between
0.0791410911	the production
0.0791400257	most frequently
0.0791258432	metric based on
0.0791206186	a direct
0.0791100701	small set of
0.0791099199	a previously published
0.0791050919	a sink
0.0791050401	valuable tool for
0.0790907414	a simulation
0.0790861602	our experiments demonstrate
0.0790853580	used to remove
0.0790768665	control framework for
0.0790641858	the optimal linear
0.0790619817	the third generation
0.0790609293	a network on chip
0.0790420133	occurring in
0.0790359797	tracking based on
0.0790336448	performance metrics such as
0.0790280603	a new approach for
0.0790238489	order to facilitate
0.0790233877	observations about
0.0790199423	a particle
0.0790179480	the study showed
0.0790176918	a 2d
0.0790163735	a natural generalization
0.0789963691	the downlink
0.0789930757	by minimizing
0.0789814699	not completely
0.0789692259	the lifetime
0.0789572114	for solving linear
0.0789463969	cast as
0.0789397660	the scope of
0.0789378614	the training process
0.0789256994	to know
0.0789178632	spatial correlation of
0.0789076628	n time
0.0788964506	design space for
0.0788853701	do not affect
0.0788810510	a 1d
0.0788769798	more easily
0.0788761634	this article studies
0.0788613500	the system capacity
0.0788612386	developed so far
0.0788582343	problem in order
0.0788512111	to observe
0.0788480768	published work
0.0788461185	the velocity
0.0788423597	the system under test
0.0788422379	recorded by
0.0788401462	the number of candidate
0.0788269721	the simulation of
0.0788269721	the classification of
0.0788261709	algorithm relies
0.0788105251	much more complex
0.0788095020	search based on
0.0788090513	the assumption
0.0788087935	more traditional
0.0788001427	behavior based on
0.0787945732	the approximate solution
0.0787840796	the readability
0.0787828266	the prediction performance
0.0787710717	defined on
0.0787678667	an instruction
0.0787588718	to reduce energy
0.0787587534	time spent on
0.0787509462	the bitrate
0.0787472150	new strategy
0.0787272795	architectures based on
0.0787272795	criteria based on
0.0787170725	this article shows
0.0787135861	given query
0.0787126976	a class of stochastic
0.0787015554	on real data
0.0786972771	the probability density
0.0786822511	measured at
0.0786755494	system designer
0.0786730760	less likely to
0.0786715362	prediction accuracy of
0.0786618998	a minimum
0.0786613253	an adaptive control
0.0786563231	group of
0.0786532053	the received data
0.0786506382	a hidden markov
0.0786364949	a graph model
0.0786356537	the main focus
0.0786254883	in terms of linear matrix
0.0786236108	design and development of
0.0786236108	analysis and design of
0.0786164614	discriminative power of
0.0786083468	a brief overview of
0.0786002320	a one to one
0.0785991918	the theoretical
0.0785988431	an extra
0.0785980403	new definition
0.0785913821	a macroscopic
0.0785883060	the moment generating
0.0785799190	a time delay
0.0785675949	challenging issue in
0.0785627920	many efforts
0.0785577162	relaying with
0.0785565015	a by product of
0.0785514842	lot of interest
0.0785459204	the consequent
0.0785411379	a linear function
0.0785256230	dynamic model of
0.0785167617	different fields
0.0785092888	so as to reduce
0.0785089592	filter design for
0.0785049834	a methodology for
0.0785010648	the control strategy
0.0784991402	choice between
0.0784910568	a portfolio
0.0784865844	networks consisting of
0.0784790554	different data sets
0.0784733895	detection scheme for
0.0784730780	mainly focus on
0.0784713813	to constrain
0.0784682088	gives better
0.0784643403	region of
0.0784639018	analytical approach to
0.0784586547	on simulated data
0.0784582505	to allow
0.0784572665	to provide support
0.0784517025	a convenient
0.0784425385	a linear time
0.0784317385	easily implemented in
0.0784281976	the mammalian
0.0784207201	means of
0.0784171778	technology based on
0.0784106338	a special
0.0784066383	provision of
0.0783965481	basic concepts of
0.0783925043	a simple linear
0.0783887869	approach relies on
0.0783787607	a contract
0.0783772405	most similar
0.0783728986	the inaccuracy
0.0783706276	method applied to
0.0783670515	hybrid approach to
0.0783645636	speed up of
0.0783466936	a heterogeneous network
0.0783392123	transformation between
0.0783308071	communication protocol for
0.0783300240	such as google
0.0783276154	great potential to
0.0783222614	technique in order
0.0783172271	fit between
0.0783168451	a non zero
0.0783152822	experimental validation of
0.0783135389	the transition
0.0783134668	a list of
0.0783045867	approach to multi
0.0782909451	an informal
0.0782869620	computational model of
0.0782865789	to parse
0.0782632562	the core network
0.0782563715	a privacy
0.0782496696	an analogue
0.0782456458	by taking advantage
0.0782420014	a new concept
0.0782410005	the computation
0.0782349504	statistical model for
0.0782345970	an author
0.0782238658	materials such as
0.0782229137	function based on
0.0782012112	a reasonable amount
0.0782011889	to support real time
0.0781931034	channel with
0.0781870140	the question
0.0781854450	the stability
0.0781721478	connected by
0.0781516361	a follow up
0.0781508659	used to increase
0.0781505222	a detailed
0.0781488337	more natural
0.0781479641	a large volume
0.0781438803	beneficial to
0.0781269163	the main objective of
0.0781188589	an illumination
0.0781140806	circuit with
0.0780933981	through simulations
0.0780844602	the onset
0.0780827856	the performance benefits
0.0780718561	more accurate results
0.0780659249	the test data
0.0780649019	the parameter estimation
0.0780415228	the synergy
0.0780287485	the convergence speed
0.0780189095	different configurations
0.0779995255	more than one
0.0779911313	existing work
0.0779907818	an orthogonal frequency
0.0779883669	not satisfied
0.0779838983	this paper suggests
0.0779826663	correlates with
0.0779818317	validated on
0.0779799186	known bounds
0.0779698292	the sensitivity of
0.0779666472	a central
0.0779623529	this study describes
0.0779532255	a long time
0.0779496823	neural basis
0.0779456698	a guideline
0.0779325614	the above problems
0.0779186893	a simulation framework
0.0779177624	low number of
0.0779078964	the image content
0.0779016261	boltzmann method
0.0779004738	the full diversity
0.0778964354	abstract model of
0.0778944891	combined into
0.0778918804	implementation details of
0.0778717931	to illuminate
0.0778651890	an analogous
0.0778571946	the same set of
0.0778453325	presented for
0.0778436655	model consisting of
0.0778315234	standpoint of
0.0778262328	to account for
0.0778260568	to solve problems
0.0778151615	recent years many
0.0778040014	the vast
0.0778034215	the wake
0.0778020827	an implementation
0.0778008538	1 b
0.0778008231	learning framework for
0.0777917066	the first paper
0.0777903594	results obtained for
0.0777869439	a large fraction
0.0777849115	open problem in
0.0777790164	any time
0.0777701665	the proposed power
0.0777629610	in order to represent
0.0777627177	agree well
0.0777551211	in order to integrate
0.0777302015	assessed through
0.0777269826	a generic framework for
0.0777229097	by formulating
0.0777193608	modeling framework for
0.0777109465	the software architecture
0.0777071140	the semantic content
0.0777064249	unfortunately existing
0.0776988252	a combined
0.0776941569	architecture provides
0.0776928282	undertaken by
0.0776903648	programming approach for
0.0776867590	either directly
0.0776726222	language models for
0.0776720350	the problem of optimizing
0.0776649396	over 100
0.0776618369	the relative importance of
0.0776611714	worthy of
0.0776525846	knowledge regarding
0.0776520748	to distinguish between
0.0776393651	model consisting
0.0776382739	circuits based on
0.0776258094	formulated in terms of
0.0776155166	the number of false
0.0776149774	a multidisciplinary
0.0776119777	by transforming
0.0776111897	a great deal of
0.0776004428	discretization of
0.0775788782	then fed
0.0775768665	computational model for
0.0775674627	silicon on
0.0775631417	each input
0.0775528850	not changed
0.0775527928	the control of
0.0775441514	way to deal
0.0775427569	the problem of tracking
0.0775388241	so doing
0.0775381869	control algorithms for
0.0775292842	the major challenges
0.0775286579	often assumed
0.0775209181	in doing so
0.0775073996	based design of
0.0774970346	this approach enables
0.0774962560	the requested
0.0774874035	the computational complexity of
0.0774865641	a multiobjective optimization
0.0774774227	the main issues
0.0774720975	a patch
0.0774702396	composition of
0.0774697876	no difference
0.0774646208	in concert
0.0774455644	an actual
0.0774396498	previous research on
0.0774357569	to corroborate
0.0774309587	more attention
0.0774226704	established by
0.0774051910	methods applied to
0.0774049896	existence and uniqueness of
0.0774029855	learning method for
0.0773991230	the main goal
0.0773979677	first part
0.0773978317	large amount
0.0773927774	time integration
0.0773918697	a cylindrical
0.0773918697	a rectangle
0.0773918007	new proof
0.0773792372	better suited to
0.0773747771	structure based on
0.0773730994	an evaluation of
0.0773615137	the number of channels
0.0773533437	the insider
0.0773355322	best individual
0.0773352907	received signal to
0.0773291822	the root
0.0773182089	present algorithms for
0.0773158827	links among
0.0773139860	complexity analysis of
0.0773130381	the physical environment
0.0773026950	areas such as
0.0772984201	an efficient approach
0.0772974567	a low computational
0.0772933833	the rapid increase
0.0772904865	benefits from
0.0772837177	the limit
0.0772831047	this paper illustrates
0.0772818520	general model of
0.0772816300	based classification of
0.0772793709	different technologies
0.0772757260	the observed data
0.0772697876	various ways
0.0772659582	protected from
0.0772646608	to reflect
0.0772609239	an increasing number
0.0772521315	based modeling of
0.0772474208	set of benchmark
0.0772448387	a shopping
0.0772409725	a reasonable amount of
0.0772406978	able to accurately
0.0772398430	dynamic changes in
0.0772392532	the gap
0.0772311730	a tool called
0.0772267298	essential for
0.0772253105	the efficiency and effectiveness of
0.0772230393	genetic algorithm with
0.0772204993	integral part of
0.0772161967	similar result
0.0772146129	to revise
0.0772139853	to deduce
0.0771999776	by giving
0.0771998266	form solution for
0.0771995419	not sufficiently
0.0771973173	fail to
0.0771949945	static analysis of
0.0771916187	conclude with
0.0771816203	the security requirements
0.0771660051	best result
0.0771635520	a testbed
0.0771619895	a demonstrator
0.0771592622	management framework for
0.0771486902	marked by
0.0771458524	an extreme
0.0771365987	the utility function
0.0771288140	one third
0.0771279293	better throughput
0.0771153160	certain conditions
0.0771114506	a scene
0.0771023163	comparisons with
0.0770959118	now available
0.0770923235	second part
0.0770834893	good approximation
0.0770740016	prediction performance of
0.0770697876	no loss
0.0770563243	the well established
0.0770500102	to discard
0.0770481026	the asymptotic stability
0.0770439503	the prevalence
0.0770381423	to encompass
0.0770374325	equilibria in
0.0770341966	succession of
0.0770218151	any positive
0.0770200848	the closeness
0.0770124316	a certain amount of
0.0770000098	increasing interest in
0.0769984435	the mathematical model
0.0769929725	applies to
0.0769920085	particularly effective
0.0769842343	aspects such as
0.0769698306	this conjecture
0.0769698292	the execution of
0.0769698292	the ratio of
0.0769571854	a sentence
0.0769516313	in order to deal with
0.0769514738	distributed among
0.0769487918	this article focuses
0.0769482470	the design of future
0.0769478014	theoretic framework for
0.0769418968	the throughput performance
0.0769376936	an enhanced version of
0.0769353688	the current research
0.0769318962	rather simple
0.0769213884	emerging as
0.0769200706	to harness
0.0768908660	eliminated by
0.0768814800	the sea
0.0768773945	rather general
0.0768571946	the equivalence of
0.0768489557	length of
0.0768386639	by showing
0.0768355347	good results
0.0768142619	a message
0.0768110302	20 technologies
0.0768032683	to terminate
0.0767921673	the eventual
0.0767913821	a polygonal
0.0767856937	modification of
0.0767851224	optimization framework for
0.0767840053	delivery over
0.0767629762	detection algorithm for
0.0767625548	synthesized by
0.0767593743	to supplement
0.0767580515	do not work
0.0767529786	at anytime
0.0767520676	by up to
0.0767495349	sustainability of
0.0767494171	detection method for
0.0767437630	a developmental
0.0767414349	to do
0.0767414278	a pattern
0.0767401031	various forms
0.0767382474	theoretical model of
0.0767362618	a genetic
0.0767153864	study indicates
0.0767056713	any change
0.0766974651	a standalone
0.0766967931	to withstand
0.0766889287	a challenging task due
0.0766882247	two successive
0.0766794933	a significant impact
0.0766645907	well adapted to
0.0766598294	to provide efficient
0.0766548387	a structured
0.0766506561	evolved over
0.0766448670	a novel framework
0.0766432714	transmitted through
0.0766381603	does not provide
0.0766369549	now widely
0.0766336813	the medium access
0.0766276585	inferior to
0.0766127028	now possible to
0.0766071449	conceptual model of
0.0765959542	robustness of
0.0765923953	the course
0.0765911651	the impact
0.0765911435	satisfaction with
0.0765903419	learning approach for
0.0765879337	approach leads to
0.0765867458	most important issues
0.0765789052	byproduct of
0.0765633388	the adjacency
0.0765604083	a significant performance
0.0765579361	transmission scheme for
0.0765562430	by reusing
0.0765553461	a twofold
0.0765501918	new light on
0.0765359118	problems associated with
0.0765318330	encapsulated in
0.0765313992	or alternatively
0.0765268148	efficient approach to
0.0765231738	a visual
0.0765103677	generation based on
0.0765020247	used to recover
0.0765012752	the adaptation process
0.0764929289	at low signal to
0.0764898356	an operational
0.0764890575	a higher degree of
0.0764875125	the existing works
0.0764780695	flexible way
0.0764740711	two neighboring
0.0764678709	the peak to
0.0764667565	the main advantage
0.0764443402	and time consuming task
0.0764438612	the central nervous system
0.0764397660	a survey of
0.0764362477	to improve accuracy
0.0764316797	applied in order
0.0764170674	the second group
0.0764108996	the best existing
0.0764104197	mobile devices such as
0.0764010428	the combination
0.0763821878	in many real world
0.0763818531	sensitivity of
0.0763756538	conjecture for
0.0763418774	development and deployment of
0.0763418138	resource management in
0.0763185377	difficult because
0.0763134668	the superiority of
0.0763133941	software tool for
0.0763047964	network model with
0.0762945007	an active area of
0.0762818308	reported in
0.0762769896	the global optimal
0.0762734102	a cyber
0.0762722100	for different purposes
0.0762592727	optimization technique for
0.0762507369	several data sets
0.0762488188	the cumulative
0.0762482232	motivation for
0.0762418468	as follows first
0.0762369637	used to track
0.0762292091	the condition number
0.0762272371	the discrepancy
0.0762259355	efficient method for
0.0762253105	the same level of
0.0762209201	and frequency domains
0.0762165757	data derived from
0.0762144594	achieved via
0.0762050015	the estimation accuracy
0.0762038488	the efficiency
0.0761987018	errors due to
0.0761940216	a real network
0.0761815339	the output signal
0.0761615079	extraction method for
0.0761569268	classification rate of
0.0761556159	ubiquity of
0.0761501636	tradition of
0.0761452202	previous work on
0.0761339894	evolved into
0.0761261688	to emerge
0.0761188165	a complex
0.0761159521	the session
0.0761008275	the transmission range
0.0760979830	an abstraction
0.0760874140	evaluation method for
0.0760732673	interaction within
0.0760711674	dynamic changes
0.0760687395	tightness of
0.0760611121	visual quality of
0.0760505485	the key issues
0.0760447668	an updated
0.0760432971	difference among
0.0760389489	the unique features
0.0760359229	a natural
0.0760341391	conversion between
0.0760236255	tools such as
0.0760220724	probabilistic model for
0.0760006100	methods in terms
0.0759969662	a hierarchy of
0.0759845641	the number of agents
0.0759836148	the number of variables
0.0759827856	the standard approach
0.0759766400	human behavior in
0.0759765216	the rate of
0.0759732507	may 2008
0.0759698292	the type of
0.0759505907	convergence rate of
0.0759479168	the control points
0.0759468270	the similarity
0.0759425540	to pinpoint
0.0759246521	the number of antennas
0.0759241893	become more and more
0.0759223541	applications like
0.0759165279	an approach called
0.0759147368	a certain degree
0.0759136623	under certain
0.0758965532	the first method
0.0758929430	a human like
0.0758778143	the computational costs
0.0758711853	the system state
0.0758610892	theorem for
0.0758573768	a bidirectional
0.0758540867	spectral efficiency of
0.0758500983	80211 distributed
0.0758495816	rich set of
0.0758306804	based solution for
0.0758275423	oriented approach for
0.0758109221	a system on
0.0757976659	the hypothesis
0.0757827612	a new algorithm for
0.0757827612	the outcome of
0.0757806159	repertoire of
0.0757767120	an increasingly important role in
0.0757765734	specifically designed to
0.0757695244	proves to
0.0757681598	desire to
0.0757628863	graph with n
0.0757594234	annotated with
0.0757583513	the network load
0.0757533627	while producing
0.0757459698	based representation of
0.0757432550	an office
0.0757423224	comprehensive analysis of
0.0757359808	impaired by
0.0757271069	in terms of energy consumption
0.0757224811	enhanced version of
0.0757033437	the mle
0.0756783247	not satisfactory
0.0756717360	other authors
0.0756647810	a fundamental role
0.0756643311	still difficult
0.0756612078	the prevailing
0.0756528843	to improve efficiency
0.0756438051	computational power of
0.0756412162	various situations
0.0756167926	the special case
0.0756135332	the video sequence
0.0756085154	optimization approach for
0.0756027970	in time o
0.0755989181	certain range
0.0755948642	the sparseness
0.0755945202	different subjects
0.0755879718	information derived from
0.0755724886	selection method for
0.0755692840	an adjacent
0.0755632823	a thorough
0.0755579082	the inherent
0.0755470140	the observation
0.0755436164	needs to
0.0755378674	the prediction of
0.0755323306	an ordered
0.0755152943	a polynomial time approximation
0.0755052899	to streamline
0.0755025609	negative effect of
0.0754958654	operations like
0.0754784917	the data points
0.0754657421	arising in
0.0754643403	area of
0.0754605938	the prediction results
0.0754581713	objective value
0.0754511651	the execution
0.0754188874	the new version
0.0754143495	the growth
0.0754136173	the likelihood function
0.0754135302	by performing
0.0754118421	in contrast to traditional
0.0754107385	does not scale
0.0754106226	used to transform
0.0754029855	dynamic analysis of
0.0753974578	reasonable amount
0.0753921185	range from
0.0753892641	to launch
0.0753865010	in order to analyze
0.0753823401	between individuals
0.0753746433	while simultaneously
0.0753717908	become more
0.0753671555	a fundamental
0.0753597949	the second algorithm
0.0753458743	interactions within
0.0753388172	study on
0.0753388134	to transmit data
0.0753312030	the discrete wavelet
0.0753278745	the inability
0.0753231689	to fit
0.0753195916	a biped
0.0753145695	experimental evaluation on
0.0753001586	the main advantages
0.0752984958	the value chain
0.0752979544	for differentiating
0.0752764858	experimental study of
0.0752620355	called k
0.0752488253	make predictions
0.0752415173	allows designers
0.0752306961	most recent
0.0752231025	the method presented
0.0752201182	more important
0.0752045582	suitability for
0.0751905295	field of view of
0.0751893671	the same channel
0.0751813502	an imperfect
0.0751812272	the k nearest
0.0751769202	promising solution to
0.0751613767	perturbed by
0.0751581264	the feasible set
0.0751421884	systematic approach to
0.0751411636	optimization model for
0.0751230762	underpinnings of
0.0751206345	the channel quality
0.0751137359	a competitive
0.0751128848	formal model of
0.0751113383	the measurement
0.0751065427	the input images
0.0750997595	the acceptability
0.0750872179	the energy efficiency of
0.0750760055	by utilising
0.0750698834	form solutions for
0.0750697274	a primal
0.0750624099	a simple graph
0.0750590704	the interplay between
0.0750527788	an infrared
0.0750508465	new knowledge
0.0750437559	a monocular
0.0750421673	the seminal
0.0750355237	approach presented in
0.0750348330	accuracy rate of
0.0750301381	presentation of
0.0750266697	detection and classification of
0.0750218350	originality of
0.0750213481	to offer
0.0750146757	a unified model
0.0750125476	curse of
0.0750092184	did not consider
0.0750054350	heuristic approach for
0.0749968606	growth of
0.0749917745	efficiently find
0.0749912010	concept of
0.0749799396	the green
0.0749698292	the range of
0.0749664241	literature review of
0.0749591508	method combined with
0.0749571946	the simplicity of
0.0749514019	hardware design of
0.0749490231	measurement based on
0.0749452617	the retrieval process
0.0749334631	the blue
0.0749239639	a short period of time
0.0749199825	a collaborative learning
0.0749196403	mathematical analysis of
0.0749177132	the physician
0.0749176804	over 30
0.0748808713	degradation due to
0.0748697242	the run time
0.0748675239	support decision
0.0748615970	the fifth
0.0748523184	the total number
0.0748462019	a basic
0.0748441267	a column
0.0748429724	distribution among
0.0748262395	the question of
0.0748257076	global view of
0.0748201030	an unstructured
0.0748195320	not readily
0.0748120446	extracted by
0.0748105886	the location information
0.0748092998	a polynomial time algorithm for
0.0748040168	learned by
0.0748011499	corrected by
0.0747944043	this study shows
0.0747929547	particularly interested in
0.0747827612	the principle of
0.0747759223	a good
0.0747753899	in order to compare
0.0747734356	investing in
0.0747676128	the firing
0.0747639902	distributions over
0.0747625674	analysis method for
0.0747581268	novel hybrid
0.0747552899	to instantiate
0.0747455089	an induction
0.0747397226	a networked
0.0747309008	middleware for
0.0747283990	the effort required
0.0747117361	widely used in many
0.0747098820	web server for
0.0747022828	linear system
0.0746993839	in many situations
0.0746954461	used to investigate
0.0746853798	helpful for
0.0746828121	differ in
0.0746809393	the baseline
0.0746793414	hybrid approach for
0.0746601763	employed to
0.0746567653	commonly found
0.0746477495	the well studied
0.0746333139	a proper
0.0746191856	iterative method for
0.0746188829	the experimental result
0.0746121258	over 50
0.0746115715	optimal number
0.0746109194	history of
0.0746089223	by constructing
0.0746085229	a 65nm
0.0746077080	a signal to noise
0.0746071858	popular way
0.0745965362	relevant information in
0.0745961886	special type of
0.0745858467	many tasks
0.0745822977	the model proposed
0.0745817463	computed via
0.0745705578	a tool
0.0745578291	the initial state
0.0745573837	the approximation ratio
0.0745501801	point out
0.0745123714	the proposed modeling
0.0745055823	the sense
0.0745026784	a modified version
0.0744960311	varying levels
0.0744904477	creation of
0.0744846308	estimator for
0.0744771012	in contrast
0.0744740711	this paper surveys
0.0744682093	higher level of
0.0744678768	future development of
0.0744590821	a powerful method
0.0744490205	a fragment
0.0744427712	shortage of
0.0744411468	a maximal
0.0744373010	world scenario
0.0744287410	different locations
0.0744287033	a positive effect
0.0744251853	a trust
0.0744213884	chosen as
0.0744114542	more desirable
0.0743930757	by studying
0.0743810976	new data structure
0.0743749607	pertinent to
0.0743746776	a multiple input
0.0743723105	a system for
0.0743655458	a novel method called
0.0743495120	the rapid development
0.0743485755	three contributions
0.0743473166	unrelated to
0.0743470034	same direction
0.0743413263	the pan
0.0743368601	means of simulation
0.0743226521	limited number
0.0743065707	the overall performance of
0.0742971601	widely studied in
0.0742827612	the provision of
0.0742667149	the multi agent system
0.0742619882	an implementation of
0.0742422701	a lot of research
0.0742331821	the key elements
0.0742315804	quality of service for
0.0742257462	observed in
0.0742196205	networks such as
0.0742013945	comes to
0.0741853250	analysis in order
0.0741798486	network consists of
0.0741694958	to relax
0.0741694672	set top
0.0741485546	classified by
0.0741394228	based technique for
0.0741327612	an understanding of
0.0741150112	the server side
0.0741133871	a desired
0.0741104216	the title
0.0741091267	a huge number of
0.0741053997	to enlarge
0.0740963837	for robust speech
0.0740953795	first step towards
0.0740931922	any kind
0.0740745060	throughput while
0.0740673263	control architecture for
0.0740658940	linear function of
0.0740532501	the utility
0.0740492673	simulation environment for
0.0740487137	robust with respect to
0.0740441313	an instrument
0.0740441267	a gesture
0.0740437559	a programmer
0.0740391686	the method consists
0.0740351537	high number of
0.0740333139	to reveal
0.0740313904	the access point
0.0740300437	known as
0.0740205079	wide class
0.0740129282	this class
0.0740123824	a digital image
0.0739980627	the base
0.0739897752	guideline for
0.0739879700	a control law
0.0739843728	to move
0.0739582471	a need for
0.0739486707	computational approach to
0.0739404009	a monolithic
0.0739391215	appeared to
0.0739280671	the security level
0.0739248926	the study shows
0.0739230560	using fmri
0.0739092318	searched for
0.0738923895	than ever
0.0738911849	a remote
0.0738874755	very natural
0.0738810832	a timed
0.0738778143	the relative error
0.0738728012	a trial
0.0738701935	requirements in order
0.0738556159	resides in
0.0738553997	to substantiate
0.0738493274	do not fully
0.0738492195	network performance in
0.0738467855	the key factors
0.0738350622	with low computational
0.0738269721	the measurement of
0.0738262395	the strength of
0.0738121128	and then propose
0.0738097588	the key contribution
0.0738065826	several criteria
0.0738062027	the controller design
0.0738060997	three parts
0.0738047985	decisions based on
0.0738040017	improved algorithm for
0.0737948818	a necessary and sufficient condition
0.0737815932	recognition performance of
0.0737812459	problem of generating
0.0737782259	suitable for real
0.0737674664	this paper explains
0.0737669828	foundation for
0.0737668259	a lower bound on
0.0737640154	protocol does not
0.0737639876	a database system
0.0737625469	the necessity
0.0737516156	important applications in
0.0737459698	based scheme for
0.0737379703	condition number of
0.0737354889	more powerful than
0.0737263922	device based on
0.0737231159	effective solution to
0.0737208268	a comparative study of
0.0737161503	reflected in
0.0737141706	suitable for large
0.0736900142	bridge between
0.0736885141	the inclusion
0.0736848277	this family
0.0736718865	improvement compared to
0.0736543132	three cases
0.0736413506	also shown
0.0736404853	profitability of
0.0736349134	any other
0.0736169135	the coexistence
0.0736146148	one third of
0.0736087369	considered in
0.0735965218	variety of approaches
0.0735962618	heuristic approach to
0.0735875288	the construction
0.0735802644	in order to characterize
0.0735688223	an intuitive way
0.0735585408	proposed scheme provides
0.0735510505	other tasks
0.0735504093	resources eg
0.0735452725	on synthetic and real data
0.0735440149	an important component
0.0735362367	a large collection of
0.0735348919	committed to
0.0735309369	the analytical solution
0.0735284169	four types
0.0735271285	to noise
0.0735134697	abundance of
0.0735043264	the origin
0.0735038757	does not allow
0.0735001590	checked by
0.0734904173	a time consuming
0.0734744471	a score
0.0734700454	information coming
0.0734590821	a popular approach
0.0734587560	adjusted by
0.0734573233	able to deal
0.0734571991	entities such as
0.0734529967	to arrive at
0.0734308563	great potential in
0.0734306546	constraints such as
0.0734247609	increasing use of
0.0734074615	enriched by
0.0733984718	to coexist
0.0733859024	many times
0.0733759936	fill in
0.0733606541	several benchmarks
0.0733585516	different subsets
0.0733208658	to finish
0.0733192876	an efficient algorithm for
0.0733149755	optimization algorithm for
0.0733075388	no more than
0.0732985087	these two methods
0.0732980771	the key problems
0.0732963404	working with
0.0732950978	several times
0.0732857461	moved from
0.0732811704	control protocol for
0.0732745459	other contexts
0.0732690042	by aggregating
0.0732603919	operations such as
0.0732521756	an average accuracy
0.0732510263	conception of
0.0732493014	used to quantify
0.0732457826	to solve complex
0.0732264445	a specific class of
0.0732227184	recorded from
0.0731844571	a certain range
0.0731822840	the orthogonality
0.0731777961	decoupled from
0.0731637136	the paper provides
0.0731528201	selection algorithm for
0.0731433376	use of technology
0.0731372445	to shrink
0.0731363798	attacks such as
0.0731264941	a software system
0.0731087071	introduced in
0.0731036536	implemented by
0.0730925327	a user specified
0.0730917918	improve performance of
0.0730661828	sensed by
0.0730445451	the spatial resolution
0.0730153660	the top
0.0730037865	the recent literature
0.0730036164	an aggregate
0.0730016649	more scalable
0.0730000483	the evolution
0.0729972517	a bridge
0.0729827856	the conventional approach
0.0729765321	our results reveal
0.0729673875	this paper applies
0.0729556967	the semantic information
0.0729353824	the proposed learning
0.0729308982	the chip area
0.0729303262	from microarray
0.0729288438	based system for
0.0729285527	in order to allow
0.0729271987	the same cluster
0.0729202348	a dictionary
0.0729163048	an hour
0.0729077612	the other two
0.0729047281	architecture uses
0.0729022016	variation of
0.0728944911	a decision support system
0.0728835352	a random variable
0.0728716491	regression model for
0.0728621575	used to discover
0.0728536790	takes into account both
0.0728510887	knowledge proof
0.0728433008	a kind
0.0728332403	the proposed concept
0.0728300660	the same order
0.0728274517	lead to better
0.0728262328	an estimate of
0.0728178107	concepts such as
0.0728133541	this optimization problem
0.0728095590	the chief
0.0728006679	a kernel
0.0727823728	implementation based on
0.0727794557	a stochastic process
0.0727695048	appreciation of
0.0727552324	the rationale
0.0727430971	the spatial distribution of
0.0727104739	formalized as
0.0727065950	to take
0.0726847893	new measure
0.0726717471	scheme consists of
0.0726565092	key elements of
0.0726524735	new image
0.0726507934	a linear combination of
0.0726448949	the energy function
0.0726372445	to tailor
0.0726319560	to differentiate between
0.0726278314	the power spectrum
0.0726269654	different parts of
0.0726086730	a linear model
0.0725959836	a grey
0.0725950259	calculus with
0.0725890867	algorithm gives
0.0725824511	the computational effort
0.0725742298	systems composed of
0.0725601321	a house
0.0725596417	information processing in
0.0725553302	against node
0.0725546439	the naive
0.0725474519	the existing literature
0.0725410363	predictive control of
0.0725407775	reliability analysis of
0.0725354820	case study on
0.0725287485	the communication overhead
0.0725272410	each location
0.0725194605	the first problem
0.0725151148	thickness of
0.0725138198	a policy
0.0725133940	two levels
0.0725056427	the final results
0.0724848625	the application domain
0.0724520621	each variable
0.0724465500	the upper
0.0724444601	improvement in terms of
0.0724439182	comparison of different
0.0724366845	more effectively than
0.0724171621	to bypass
0.0724166278	the performance results
0.0724064101	optimal solution for
0.0724042606	the global convergence
0.0723942460	by generalizing
0.0723931181	a new protocol
0.0723903728	used to learn
0.0723856937	eer of
0.0723772009	yield better
0.0723759883	system with
0.0723751073	more consistent
0.0723685517	the prediction accuracy
0.0723664296	average accuracy of
0.0723660149	but none
0.0723575315	used to reconstruct
0.0723483745	in order to explore
0.0723466460	improvement of
0.0723462313	the last part
0.0723441612	the paper aims
0.0723402082	a communication network
0.0723399280	optimization problem in
0.0723333452	single point of
0.0723294435	model proposed in
0.0723175392	released by
0.0723061444	design approach to
0.0722981387	a new product
0.0722981362	at most 1
0.0722967063	a previously proposed
0.0722806788	recent years several
0.0722804700	perceived as
0.0722792276	a detailed description
0.0722708632	information eg
0.0722692460	an unusual
0.0722588503	mainly due to
0.0722493014	used as inputs
0.0722401501	a gaussian distribution
0.0722300353	approach consists of
0.0722220703	algorithm consists of
0.0722173374	a predefined
0.0721917298	a spatiotemporal
0.0721834254	an objective
0.0721804359	comprehensive study of
0.0721780945	policy based on
0.0721711025	a key problem
0.0721699822	main contribution of
0.0721285754	a permutation
0.0721285021	accounted for by
0.0721282253	a trusted third
0.0721224713	important problem in
0.0721208568	the production process
0.0721111094	by asking
0.0721044093	unpredictability of
0.0720973803	procedure for
0.0720547683	both hardware and software
0.0720530841	acquired through
0.0720450833	a subgraph
0.0720337158	labeled by
0.0720195535	research interest
0.0720153012	most important factors
0.0719990930	to handle large
0.0719983125	significant difference in
0.0719926128	the authenticity
0.0719834089	other words
0.0719766760	used to locate
0.0719698292	a network of
0.0719679407	the key concepts
0.0719661761	implemented as
0.0719514829	a better way
0.0719492854	the fitness
0.0719381819	the incoming
0.0719353708	trying to
0.0719311444	control model for
0.0719097076	calculation of
0.0719007226	by investigating
0.0718971054	a certain number of
0.0718946800	the proposed control system
0.0718940741	to purchase
0.0718904687	an interpretation of
0.0718871497	the de facto standard for
0.0718747712	practical approach to
0.0718738943	employed in
0.0718704096	an optimization
0.0718669880	used to filter
0.0718662949	many people
0.0718651056	each phase
0.0718586862	to balance
0.0718549680	to search
0.0718516760	used to distinguish
0.0718506708	several interesting
0.0718481804	the resource utilization
0.0718422686	the probability distributions
0.0718334476	disciplines such as
0.0718278745	the upcoming
0.0718080289	more direct
0.0718022016	ability of
0.0717931289	particular interest
0.0717928513	different dimensions
0.0717840457	knowledge among
0.0717837866	at most one
0.0717790031	a multiresolution
0.0717762846	major challenges in
0.0717665725	a broad range
0.0717605672	usefulness of
0.0717603799	a broad class of
0.0717562430	by placing
0.0717530379	the fundamental
0.0717472623	provide evidence for
0.0717357229	a good balance
0.0717287637	expressive power of
0.0717258287	asks for
0.0717182104	an assessment
0.0717117653	effective use of
0.0717086063	more vulnerable
0.0717074700	the access network
0.0716964582	each pair of
0.0716960386	a powerful approach
0.0716875029	to pay
0.0716651815	the inner
0.0716595728	an approach for
0.0716473670	our results provide
0.0716435479	unique features of
0.0716401558	a laser
0.0716354525	scheduler for
0.0716326788	inability to
0.0716303167	a block
0.0716287804	different architectures
0.0716169644	the actual data
0.0716122650	order to maintain
0.0716074897	the design procedure
0.0715961355	many forms
0.0715786519	found to
0.0715750373	link between
0.0715660197	the performance gain
0.0715582388	an inevitable
0.0715506502	this study investigated
0.0715431590	to compile
0.0715369017	distributed nature of
0.0715206154	widely used for
0.0715065268	as compared to
0.0715020103	belong to different
0.0714945412	the 3rd
0.0714834756	the vast majority of
0.0714747343	to encapsulate
0.0714645442	used as input
0.0714527887	compliant with
0.0714493910	a hierarchical model
0.0714426852	a distance measure
0.0714408649	a few years
0.0714105685	general framework for
0.0714051146	the duration
0.0713997742	the peak to average
0.0713929061	a tool for
0.0713796487	devices eg
0.0713761352	the basic algorithm
0.0713752339	a substantial amount
0.0713702968	an upper bound for
0.0713391943	ease of use and
0.0713349991	the measured data
0.0713332190	to web services
0.0713304484	gains over
0.0713159837	to begin
0.0713129962	the information loss
0.0713118836	typically used
0.0713110962	applicability of
0.0713106128	criterion based on
0.0712827612	an ensemble of
0.0712802675	the proposed multi
0.0712665474	to receive
0.0712606480	many factors
0.0712566890	to shed light
0.0712545356	does so
0.0712472628	used to explain
0.0712458463	a cone
0.0712384946	study focused
0.0712357934	general approach to
0.0712220730	better qos
0.0712145619	a cellular network
0.0711963219	the solution set
0.0711825124	distributed over
0.0711811980	frequency response of
0.0711803082	an efficient technique
0.0711697876	not adequate
0.0711691556	also provided
0.0711690937	a k
0.0711658708	the entire data
0.0711558152	quite large
0.0711551604	two different
0.0711532455	key component of
0.0711478662	the main purpose
0.0711463692	available at
0.0711404840	this paper reports on
0.0711338118	paired with
0.0711160449	a training set
0.0711088326	different tasks
0.0711069057	by resorting to
0.0710993283	usually done
0.0710949317	several variants of
0.0710936461	those achieved
0.0710913114	a cloud
0.0710748249	various tasks
0.0710731934	able to obtain
0.0710706024	filter with
0.0710697876	no direct
0.0710692166	particular focus
0.0710664652	the solution quality
0.0710661080	a plane
0.0710608654	degraded by
0.0710596096	a link
0.0710556159	immersed in
0.0710535109	a multilevel
0.0710524966	the number of features
0.0710516524	a string
0.0710444419	the explosive
0.0710394896	simulation based on
0.0710391324	the north
0.0710383019	of transmit and receive antennas
0.0710367609	the winner
0.0710300437	this way
0.0710296575	a vast amount of
0.0710275281	software architecture for
0.0710162716	an emergent
0.0710017914	without taking
0.0710013897	a fuzzy clustering
0.0709905669	used to find
0.0709902904	a transactional
0.0709895640	major contribution of
0.0709774805	both space and time
0.0709728111	network model for
0.0709720225	main advantages of
0.0709698292	the transmission of
0.0709617582	the test set
0.0709586583	range of problems
0.0709571946	the work presented in
0.0709542619	a minimal
0.0709335062	a 3d virtual
0.0709258046	the first model
0.0709195754	based technique to
0.0709142867	this paper aims to
0.0709096959	events such as
0.0709092432	very suitable
0.0709028614	the solution procedure
0.0708982679	the algorithm presented
0.0708973641	search method for
0.0708689756	the vehicle routing problem with
0.0708564580	a smaller number
0.0708534168	this investigation
0.0708480509	meant to
0.0708430348	to ease
0.0708425881	some numerical results
0.0708413263	the epidemic
0.0708275644	a bipartite
0.0708262328	a suite of
0.0708197546	an instantaneous
0.0707885496	while performing
0.0707827612	the occurrence of
0.0707811565	very positive
0.0707754839	several extensions
0.0707602319	in mind
0.0707594371	an interconnection
0.0707579141	order to demonstrate
0.0707483849	a shared
0.0707346761	the problem of optimal
0.0707332011	the root cause
0.0707318652	the 3d model
0.0707258287	substitute for
0.0707237204	data set with
0.0707227674	becomes more and more
0.0707181275	the above
0.0707086730	a generic model
0.0707031109	a marker
0.0706958348	a novel strategy
0.0706743563	engagement with
0.0706657638	any special
0.0706629647	to go beyond
0.0706590051	the available bandwidth
0.0706541991	to spend
0.0706502929	the performance gains
0.0706475406	information content of
0.0706464872	better classification
0.0706349346	derived by
0.0706303167	a component
0.0706289081	of graphs with
0.0706116030	used to form
0.0706107120	key challenges in
0.0705767615	the global positioning
0.0705664591	this work introduces
0.0705523043	a trusted
0.0705515093	much more efficient
0.0705510952	each device
0.0705497699	weighted average of
0.0705343992	the cardinality
0.0705188805	various scenarios
0.0705060661	the main design
0.0705044483	contribution of
0.0705011753	traffic over
0.0704984079	classifiers such as
0.0704942932	a framework called
0.0704921212	certain threshold
0.0704733428	a clear
0.0704620523	to achieve optimal
0.0704591322	used to decide
0.0704506717	this panel
0.0704438794	the performance improvement
0.0704409244	other methods
0.0704267480	a given image
0.0704181915	findings from
0.0704106036	attracted much attention in
0.0704050645	a compiler
0.0703903029	deployed over
0.0703864212	robustness with respect to
0.0703825155	an fmri
0.0703791737	the time consuming
0.0703701680	a higher number
0.0703638623	an efficient and effective
0.0703621348	increasing attention in
0.0703618550	the network resources
0.0703600483	the size
0.0703391936	different sizes
0.0703341326	minimization of
0.0703316940	the prediction accuracy of
0.0703260288	the classical approach
0.0703206572	by translating
0.0703110453	the selection process
0.0702965180	a common approach
0.0702949825	the query results
0.0702937489	succeed in
0.0702841309	system for monitoring
0.0702751528	introduction of
0.0702744085	algorithm to find
0.0702725933	preliminary evaluation of
0.0702645093	a comparison
0.0702582648	order to address
0.0702542235	to prove
0.0702518087	two new methods
0.0702494279	the necessity of
0.0702484730	suffices to
0.0702446652	mining based on
0.0702373887	while controlling
0.0702255741	a tunable
0.0702139492	contaminated with
0.0701999805	to approximate
0.0701903496	an infrastructure
0.0701778759	challenging task in
0.0701751254	a typical example
0.0701683281	certain degree
0.0701502306	times less
0.0701376981	the mean absolute
0.0701288934	a brief description
0.0701275438	line of
0.0701189357	various purposes
0.0701179277	arranged in
0.0701145413	to provide accurate
0.0701102802	generated by using
0.0701102530	mainly focused
0.0701087891	a closed form solution for
0.0701022794	markov model for
0.0701012949	a general model
0.0700983687	an overall accuracy of
0.0700935001	sharing between
0.0700917678	taxonomy of
0.0700686382	parameters in order
0.0700582326	data set for
0.0700560996	state estimation for
0.0700556159	reside in
0.0700501235	data set in
0.0700500979	a reversible
0.0700430112	by augmenting
0.0700424953	converging to
0.0700411187	a broad
0.0700223664	much less than
0.0700214807	the system parameters
0.0700164725	a ranking
0.0700112579	a well studied
0.0700087813	not simply
0.0700087114	duration of
0.0700054989	commonly found in
0.0699867008	fed to
0.0699706365	the integration
0.0699698292	a model for
0.0699698292	the design and implementation of
0.0699698292	the growth of
0.0699690072	the effectiveness and robustness of
0.0699671239	well beyond
0.0699619871	arise due
0.0699595745	an inventory
0.0699589708	automated system
0.0699435067	the analysis reveals
0.0699427473	on real images
0.0699283264	a significant fraction
0.0699245179	beamforming with
0.0699148491	new trend
0.0698997925	this work describes
0.0698861116	the use of semantic
0.0698851075	measures such as
0.0698811612	approach proposed in
0.0698783024	the test results
0.0698761151	series of
0.0698752643	a half
0.0698752581	frequency range of
0.0698728974	example to illustrate
0.0698612882	a certain
0.0698493256	the practicality of
0.0698492442	problem of building
0.0698492075	the numerical results
0.0698489233	a system of
0.0698401668	central role in
0.0698362161	applicable to other
0.0698218272	a popular method
0.0698203482	to trust
0.0698115823	a negative impact
0.0698112472	the end
0.0697883973	evaluated by means of
0.0697870651	different modes
0.0697866167	no single
0.0697760219	scheme without
0.0697689452	creation of new
0.0697683470	the joint optimization
0.0697641842	the current network
0.0697611303	integration between
0.0697587063	a sparse
0.0697542699	the objective functions
0.0697537256	a wireless channel
0.0697518119	presented in detail
0.0697507964	the price
0.0697428902	the user to
0.0697423060	general form of
0.0697414278	a resource
0.0697340560	our aim
0.0697306569	communications over
0.0697288794	often too
0.0697177542	removal of
0.0697066151	diameter of
0.0697042072	computational experiments on
0.0696930128	a new parameter
0.0696641383	in order to extend
0.0696551471	several advantages over
0.0696517576	a video
0.0696476574	helpful to
0.0696422259	not directly
0.0696406998	gain over
0.0696316543	used to express
0.0696316543	used to assist
0.0696245567	the association
0.0696103559	an annotation
0.0696067475	bound for
0.0695978723	other approaches
0.0695915717	the achievable
0.0695729258	by enforcing
0.0695668304	an access
0.0695659521	the adoption
0.0695593579	to enjoy
0.0695504759	the membership
0.0695173092	large corpus of
0.0695117207	or more generally
0.0695057240	authenticity of
0.0695020022	the performance analysis
0.0694997081	compared to previously
0.0694947882	stored as
0.0694788087	pair of
0.0694774480	the average error
0.0694716617	detection performance of
0.0694674072	come into
0.0694515478	occur at
0.0694389199	of merit
0.0694293621	not too
0.0694251214	the reconstructed
0.0694246521	the number of processors
0.0694173152	the dynamic behavior
0.0694155365	an evolution
0.0694065826	several groups
0.0694034764	fabricated in
0.0693994933	but instead
0.0693944052	the constituent
0.0693836620	automated method for
0.0693829920	each scenario
0.0693770538	while taking into account
0.0693674328	interfering with
0.0693571744	only considers
0.0693539396	a novel algorithm
0.0693506389	a broader range of
0.0693495900	important to
0.0693388228	outperform other
0.0693354982	field study of
0.0693347714	find ways
0.0693212779	users need
0.0693171151	scheme allows
0.0693150055	the introduction of new
0.0693015037	studied in
0.0692911579	under severe
0.0692830168	recognition accuracy of
0.0692828480	unified framework for
0.0692818387	the perceived quality
0.0692781919	several factors
0.0692737778	the difference of
0.0692674353	to reject
0.0692646608	to decrease
0.0692562772	the problem of multi
0.0692554600	m cmos
0.0692497343	to exclude
0.0692459484	gained by
0.0692422906	resources such as
0.0692406978	used to recognize
0.0692298144	different topics
0.0692292667	a simulation tool
0.0692246012	the degree distribution
0.0692213544	avenues for
0.0692100047	important topic in
0.0691999805	to cover
0.0691995708	a complete characterization
0.0691911550	used to map
0.0691865814	measures like
0.0691846910	the automorphism
0.0691798291	performance than
0.0691651104	the cornerstone
0.0691597973	a parallel implementation
0.0691516754	valuable information for
0.0691439714	the intuition
0.0691401495	a common practice
0.0691328693	two modes
0.0691278897	the spatial information
0.0691172084	does not include
0.0691139936	the goodness of
0.0691134226	a sufficiently large
0.0691118801	the max
0.0691104037	different individuals
0.0691099922	the most likely
0.0691049594	the cumulative distribution
0.0690969955	three components
0.0690827662	to debug
0.0690714163	algorithms such as
0.0690696096	other areas
0.0690688859	all possible
0.0690673165	more appropriate
0.0690651853	a color
0.0690321245	the time complexity
0.0690287138	a combination
0.0690244411	accessed at
0.0690243330	three ways
0.0690201130	lie on
0.0690166321	expected value of
0.0690076076	a quad
0.0690005213	transformation from
0.0689973337	oriented architecture for
0.0689796120	challenging problem of
0.0689718551	several types of
0.0689698292	the interaction of
0.0689696737	to merge
0.0689617582	the communication cost
0.0689596704	data extracted from
0.0689564661	a larger number of
0.0689539102	the conventional methods
0.0689476505	new criterion
0.0689440761	a key role in
0.0689382404	costs associated
0.0689354890	a globally optimal
0.0689091473	a few examples
0.0688964391	the source to
0.0688929061	the contribution of
0.0688918620	the number of iterations
0.0688912094	lemma for
0.0688888929	each alternative
0.0688853030	to participate
0.0688828283	the companion
0.0688766722	a snake
0.0688509603	more diverse
0.0688460355	each factor
0.0688456031	an entropy
0.0688317810	provides insights into
0.0688142568	of order n
0.0688094187	effects of different
0.0688062797	most suitable
0.0688051512	by separating
0.0687860786	a viable
0.0687827612	the center of
0.0687827612	the flexibility of
0.0687730899	alternative approach to
0.0687478047	transfer between
0.0687380918	incorporated in
0.0687327374	or bad
0.0687264293	comprehensive set of
0.0687241491	significant fraction of
0.0687198689	the practicability
0.0687132473	primarily due
0.0687086838	a number of interesting
0.0687083575	survey of
0.0687015106	each term
0.0686962436	allocation problem for
0.0686959732	a community
0.0686959040	this novel approach
0.0686926997	important because
0.0686806520	recognition system based on
0.0686761737	incorporated with
0.0686746733	the power spectral
0.0686650889	experimental data from
0.0686568064	hosted on
0.0686564309	succeeds in
0.0686481221	two objectives
0.0686407765	large body
0.0686303167	a feature
0.0686076880	results reported in
0.0686054172	a multichannel
0.0686017745	proposed system
0.0685873621	the minimum cardinality
0.0685858808	exclusively on
0.0685648737	coexistence of
0.0685603799	a critical role in
0.0685527928	the design and
0.0685462905	in order to study
0.0685427569	the problem of robust
0.0685341044	development of applications
0.0685312626	the art in
0.0685253105	an increase of
0.0685230834	the time spent
0.0685154786	a local minimum
0.0685067812	or even better
0.0685057109	different directions
0.0685052436	excellent performance in
0.0684983724	objects such as
0.0684982033	the power consumption of
0.0684973019	a major research
0.0684915721	two decades
0.0684838168	to upgrade
0.0684778827	a proof
0.0684657630	the most important challenges
0.0684542619	a threshold
0.0684468756	information across
0.0684414140	the system dynamics
0.0684332636	the kernel function
0.0684277970	distribution over
0.0684259449	an investment
0.0684193131	good starting
0.0684063679	commerce applications
0.0684017161	a probability distribution
0.0683978950	a website
0.0683937210	the expressive power of
0.0683778897	the state variables
0.0683523707	increasingly popular in
0.0683510204	by deriving
0.0683370501	very large data
0.0683334923	recovered by
0.0683317771	a polyhedral
0.0683306271	an approximation
0.0683282322	formalization of
0.0683100404	the development of software
0.0683082951	the detection rate
0.0683024341	a platform
0.0682930004	years after
0.0682901281	an alternative method
0.0682750316	different settings
0.0682542047	agreement with
0.0682518882	stochastic model for
0.0682484677	a way
0.0682468190	across different
0.0682380274	a general framework for
0.0682281354	based estimation of
0.0682214820	in terms of throughput
0.0682105822	a unified way
0.0682066063	the planning process
0.0682050015	the classification results
0.0682009418	to make sense
0.0681939156	the most serious
0.0681900737	same scene
0.0681796955	the number of bits
0.0681626812	the same size
0.0681599800	the high cost
0.0681409027	various aspects of
0.0681376040	a natural generalization of
0.0681312877	a companion
0.0681281455	a wider range of
0.0681062258	platforms such as
0.0680951911	serious problem
0.0680948887	the local information
0.0680943694	index based on
0.0680902849	less than 3
0.0680895918	order to apply
0.0680802404	claimed to
0.0680726551	the grand
0.0680709957	efficient technique for
0.0680556159	invested in
0.0680502284	all k
0.0680339194	operating under
0.0680335869	the web of data
0.0680334276	a business
0.0680249714	a software architecture
0.0680139491	used in conjunction with
0.0680101910	the next
0.0680076428	each training
0.0680004817	the electrocardiogram
0.0680003612	the main research
0.0679998286	an extended version
0.0679962271	performed in
0.0679959179	most representative
0.0679854380	over existing methods
0.0679845747	by reviewing
0.0679825938	all four
0.0679823044	a good understanding
0.0679726449	assisted by
0.0679698292	the boundary of
0.0679698292	the usage of
0.0679560996	simulation study of
0.0679479559	an uplink
0.0679470931	the reconstruction of
0.0679441268	provides evidence
0.0679439637	a short
0.0679310321	article provides
0.0679277687	unique characteristics of
0.0679268218	developed in
0.0679179923	vertices of
0.0679089726	recent development of
0.0678977052	to rank
0.0678949229	an unexpected
0.0678929061	the potential to
0.0678884057	visualization system for
0.0678767274	fitted to
0.0678708739	using information from
0.0678689579	context of
0.0678572362	more positive
0.0678564556	each bit
0.0678546814	a realistic
0.0678423728	the open
0.0678379201	used to carry
0.0678324477	schemes in terms of
0.0678267112	information need
0.0678262395	the meaning of
0.0678168974	to show
0.0678158817	a pilot
0.0678136614	whole network
0.0677972811	set of points in
0.0677953056	indication of
0.0677830228	to raise
0.0677650718	uniqueness of
0.0677526744	in many ways
0.0677356120	two types
0.0677329085	improvement compared
0.0677308249	the star
0.0677278665	three different approaches
0.0677210065	thus increasing
0.0677175271	the number of subcarriers
0.0677155527	each type
0.0677131297	a planar
0.0677086444	reconstructed by
0.0677059654	control system for
0.0676967947	a linear combination
0.0676833823	the paper also
0.0676791618	a quarter
0.0676698386	a step towards
0.0676626347	a container
0.0676558231	achieved with
0.0676433958	the performance improvements
0.0676402041	same query
0.0676395435	integrated framework for
0.0676343887	an outcome
0.0676256009	better convergence
0.0676254722	competitive with
0.0676246721	accelerated by
0.0676155380	by controlling
0.0676107441	a trace
0.0676105381	the most commonly used
0.0676024343	in order to examine
0.0675945933	the logarithm of
0.0675921943	very challenging task
0.0675880373	the channel conditions
0.0675755456	the tightness of
0.0675733530	also discusses
0.0675713604	a run time
0.0675701354	not taken into account
0.0675691268	any external
0.0675659314	a micro
0.0675644997	a fixed set of
0.0675631649	a bank
0.0675560341	justification for
0.0675503333	the east
0.0675449464	with limited resources
0.0675320863	sense of
0.0675317683	by manipulating
0.0675286365	do not support
0.0675246609	a good candidate
0.0675218580	a digital signal
0.0675176570	used for classification
0.0675111804	connect to
0.0675063752	experimental comparison of
0.0675047380	a convex
0.0674960807	the number of messages
0.0674909561	based methodology for
0.0674680948	information such as
0.0674671607	exchange between
0.0674473824	case study from
0.0674429225	an ad
0.0674396996	scheduling with
0.0674356570	various locations
0.0674328043	the marginal
0.0674295570	the nonlinearity
0.0674131917	to live
0.0674103812	silicon via
0.0673951790	into groups
0.0673935580	the distance between
0.0673805157	a method called
0.0673502849	order to solve
0.0673473092	the number of rules
0.0673307438	potential applications in
0.0673192557	used in practice
0.0673131874	or even
0.0673079498	english as
0.0672991859	a solid
0.0672762452	three different
0.0672742129	known to
0.0672688752	transmission range of
0.0672588070	linear system with
0.0672575351	two independent
0.0672376524	a lens
0.0672354760	more active
0.0672346352	a month
0.0672327483	an independent
0.0672260528	several state of
0.0672209658	in many areas
0.0672081920	algorithm implemented in
0.0672044812	by taking advantage of
0.0671972614	methods in order
0.0671941071	high dimensionality of
0.0671770558	graph based on
0.0671739434	a common problem
0.0671639361	the proposed implementation
0.0671592766	powerful tool in
0.0671556863	to achieve real time
0.0671548696	problem of joint
0.0671544989	phenomena such as
0.0671496056	a greedy
0.0671354511	encoded as
0.0671323311	the relative performance
0.0671311050	certain constraints
0.0671303937	our proposed approach
0.0671282770	a non
0.0671211082	a causal
0.0671008287	shortcoming of
0.0670939072	each generation
0.0670854523	stable under
0.0670802382	all traffic
0.0670659521	the national
0.0670659443	models such as
0.0670619340	able to successfully
0.0670606704	not fully
0.0670504759	a stereo
0.0670494714	transition from
0.0670474674	various datasets
0.0670466322	the method relies
0.0670391003	even more
0.0670358188	thus achieving
0.0670271640	the model to
0.0670192920	method leads to
0.0670164271	each case
0.0669985941	increased use of
0.0669931379	validity of
0.0669925046	passed to
0.0669859474	classification performance of
0.0669814772	the classification problem
0.0669715977	the university
0.0669698292	the core of
0.0669698292	the basis for
0.0669678672	testing based on
0.0669672780	continuity of
0.0669664375	a plethora of
0.0669623031	influence of
0.0669485265	the time and frequency
0.0669462034	to compete
0.0669344257	study focused on
0.0669323749	a built in
0.0669262430	as regards
0.0669201287	new method called
0.0669125377	a microcontroller
0.0668988056	primarily based on
0.0668980151	the previous works
0.0668964601	several works
0.0668932307	obtained after
0.0668910443	an admission
0.0668675702	signals such as
0.0668670577	performance degradation in
0.0668655610	achieved by using
0.0668585305	occurred in
0.0668401462	the number of vehicles
0.0668386179	a canonical
0.0668346196	efficient solution to
0.0668329662	not limited to
0.0668319340	used to protect
0.0668282790	accordance with
0.0668181290	one million
0.0668170445	a constraint satisfaction
0.0668120209	a novel technique
0.0668031493	a century
0.0667911187	a dedicated
0.0667880237	fold first
0.0667754113	to react
0.0667744764	in order to test
0.0667711510	the same way as
0.0667703024	occurrence of
0.0667687041	going to
0.0667605570	the decision problem
0.0667576362	the most representative
0.0667526705	order to validate
0.0667494759	moved to
0.0667453907	in wireless ad
0.0667422926	architectures such as
0.0667420342	each parameter
0.0667384804	not familiar with
0.0667381178	structures such as
0.0667330801	a piecewise
0.0667307544	the standard method
0.0667222416	to describe
0.0667187038	possible values
0.0667144449	respectively finally
0.0667106665	different groups
0.0666981808	framework provides
0.0666969323	the same object
0.0666655419	high probability of
0.0666607633	a way to
0.0666571946	the foundation of
0.0666521932	main feature of
0.0666367006	the usability
0.0666354027	denote by
0.0666292460	the value function
0.0666249725	active area of
0.0666215222	an unstable
0.0666183839	the estimation process
0.0666110046	generalisation of
0.0666038459	work well
0.0666002924	of great interest to
0.0665999554	good initial
0.0665936050	two approaches
0.0665891396	the convergence behavior
0.0665862808	the previously best
0.0665848798	the human perception
0.0665807523	of such systems
0.0665718380	the existing algorithms
0.0665682252	appeal of
0.0665638682	different stages
0.0665545356	do not take
0.0665512285	an essential part
0.0665472167	to improve quality
0.0665397294	the situation
0.0665389086	also present
0.0665350593	observed during
0.0665345025	a radial
0.0665282653	by making use of
0.0665277450	optimization method for
0.0665170751	the effect
0.0665065415	an important feature
0.0664995527	the peer to
0.0664813577	a single framework
0.0664740578	occurs at
0.0664708833	an effective approach
0.0664654842	to keep track of
0.0664405956	to provide additional
0.0664262130	appear to
0.0664252714	treated with
0.0664208658	to proceed
0.0664148891	a bottleneck
0.0663966600	findings show
0.0663763914	a knowledge
0.0663752166	many countries
0.0663629065	to update
0.0663466249	a design of
0.0663423802	operator based on
0.0663417574	necessary and sufficient conditions for
0.0663375821	two versions
0.0663359094	beginning of
0.0663346143	a swarm
0.0663306365	the position
0.0663259108	an estimator
0.0663252469	the wisdom
0.0662938442	further explore
0.0662916291	by orders of magnitude
0.0662812404	the probability density function of
0.0662672546	taught in
0.0662635065	the missing
0.0662589452	the evaluation shows
0.0662522021	case of
0.0662486767	cooperation with
0.0662394275	the potential benefits
0.0662376347	a biochemical
0.0662222262	different datasets
0.0662208902	to include
0.0662068064	enabler for
0.0661987621	significant number of
0.0661811116	usually considered
0.0661565152	a new distributed
0.0661480153	element method for
0.0661475164	to join
0.0661353699	new methodologies
0.0661312877	for diagnosing
0.0661267248	areas like
0.0661228103	great importance to
0.0661061980	design process of
0.0661031309	each position
0.0661020301	optimal value
0.0661006991	the performance degradation
0.0660887233	quality of service in
0.0660873278	different levels
0.0660847770	refined by
0.0660792556	throughput over
0.0660791589	the design implementation
0.0660744276	the second generation
0.0660691556	also investigated
0.0660592266	order to enable
0.0660548205	the number of training
0.0660531109	the viability
0.0660363104	other domains
0.0660320426	a cascade
0.0660312736	suggested by
0.0660256848	designed to help
0.0660241498	basis of
0.0660234872	a new video
0.0660212935	the same color
0.0660189426	for estimating
0.0660139281	mostly used
0.0660137935	origin of
0.0659901603	different methods
0.0659720564	in diesem
0.0659536863	order to ensure
0.0659490231	planning based on
0.0659484155	new ways
0.0659420322	a number of studies
0.0659388176	important characteristics of
0.0659364744	optimized by
0.0659354099	the proposed method consists
0.0659246448	a list
0.0659100216	a single model
0.0659022629	the beginning
0.0659006499	much work
0.0658954461	these two approaches
0.0658912272	appears as
0.0658773723	activity from
0.0658714787	algorithm combined with
0.0658623646	cue for
0.0658600494	a research project
0.0658598063	the algorithm proposed
0.0658585256	a goal
0.0658438320	an overall
0.0658410262	a particular case
0.0658262395	the challenge of
0.0658177598	the simplex
0.0658162714	fixed set of
0.0658146107	the experiment shows
0.0658128953	contact with
0.0658021564	development of complex
0.0658003981	the signal to interference plus noise
0.0657947608	the overall energy
0.0657865729	the continuity
0.0657860786	a straightforward
0.0657855293	the rise
0.0657840478	try to
0.0657789873	an important tool
0.0657700819	optimization over
0.0657592197	posedness of
0.0657565631	a cluttered
0.0657452150	communication over
0.0657364677	to obtain information
0.0657353297	statistical model of
0.0657333469	revealed by
0.0657306247	media such as
0.0657288267	to gain
0.0657241614	in order to deal
0.0657192143	in order to define
0.0657184423	critical issue in
0.0657152786	improve performance in
0.0657128229	systems consisting of
0.0657120019	communicating with
0.0656981687	long period of
0.0656980570	the communication network
0.0656816801	a convenient way
0.0656807491	a companys
0.0656666727	minimum amount
0.0656664375	to comply with
0.0656587133	an information retrieval
0.0656521853	an integer linear
0.0656494999	every pair of
0.0656469214	very early
0.0656436414	attractiveness of
0.0656399558	properties related to
0.0656357163	to present
0.0656269654	a new generation of
0.0656265447	overall network
0.0656258484	extended to other
0.0656228552	like structures
0.0656209043	key step in
0.0656180416	algorithm uses
0.0655868785	the transmitted data
0.0655721293	prior work on
0.0655666074	the number of measurements
0.0655560431	other types of
0.0655487071	retrieval from
0.0655403453	center of
0.0655399627	computing power of
0.0655347083	method uses
0.0655183666	the design of efficient
0.0655144275	many applications
0.0655075335	the average number
0.0655041887	to travel
0.0655028388	traditional computer
0.0654795654	the research results
0.0654766137	a new way
0.0654604947	in computer graphics
0.0654437094	to provide services
0.0654346516	a detailed analysis
0.0654250400	the first result
0.0654048007	comparing with
0.0654011587	an algebra
0.0653992216	good convergence
0.0653988160	behave as
0.0653784600	differ by
0.0653726321	usually performed
0.0653722956	a simulation example
0.0653715393	solvable in
0.0653547012	the theoretical model
0.0653494558	features of interest
0.0653493676	distribution system
0.0653413629	available online at
0.0653357562	show promising results
0.0653241022	different categories
0.0653209304	two variants
0.0653131056	for everyone
0.0653122445	to sell
0.0653065707	the same number of
0.0652976847	the computation complexity
0.0652909803	more sensitive
0.0652897882	a new approach called
0.0652831803	the theoretical basis
0.0652827612	the establishment of
0.0652590188	the logarithm
0.0652554498	algorithm against
0.0652522124	challenging problem due to
0.0652509815	the frequency range
0.0652424831	people use
0.0652377934	a possible solution
0.0652359626	isolated from
0.0652333972	the center
0.0652302995	a team of
0.0652302598	performance than other
0.0652257131	heterogeneity in
0.0652245869	a routing protocol
0.0652199770	the royal
0.0652086660	most challenging problems
0.0652055464	robust to noise and
0.0651980570	the control parameters
0.0651959732	a domain
0.0651878877	different abstraction
0.0651787950	this paper analyses
0.0651640388	by proving
0.0651605134	review of
0.0651371738	presence or absence of
0.0651309328	different organizations
0.0651141039	full advantage of
0.0651063501	to provide information
0.0651050854	by identifying
0.0650898244	the existing schemes
0.0650889566	wireless network with
0.0650716386	discussed in
0.0650644919	hard even
0.0650627751	divided by
0.0650598929	a reference
0.0650544362	techniques applied to
0.0650513180	suggestions for
0.0650289093	the uniqueness
0.0650126885	the last few
0.0649998150	performance gain of
0.0649961822	advent of
0.0649902180	use of social
0.0649877872	the spirit of
0.0649815861	to provide insight
0.0649619928	infrastructure for
0.0649587171	the number of independent
0.0649434209	the exponential growth
0.0649369148	the performance evaluation
0.0649338606	significant improvement of
0.0649305119	a rule
0.0649220275	major role in
0.0649218982	a metric
0.0649173284	a necessary condition
0.0649150579	the gap between
0.0648983062	derived for
0.0648976575	to provide insights
0.0648961121	special case of
0.0648957262	effects such as
0.0648954926	a large set
0.0648914502	a variant of
0.0648887848	the proposed estimation
0.0648706363	an improved version of
0.0648575608	organized by
0.0648541604	to maintain high
0.0648454421	large class of
0.0648433271	a simplified version of
0.0648365597	the adequacy of
0.0648358223	more recently
0.0648338209	a new kind of
0.0648114481	strategy allows
0.0648081582	various environments
0.0648026218	the architecture design
0.0647998546	the most general
0.0647815153	model to describe
0.0647810294	discuss about
0.0647793515	a discriminative
0.0647771861	pivotal role in
0.0647657082	two state of
0.0647615292	a blended
0.0647605897	a turbo
0.0647599005	extracted by using
0.0647591943	to obtain optimal
0.0647588355	the iterative process
0.0647559765	importance of
0.0647445476	new mechanism
0.0647443070	a decision procedure
0.0647404196	meaning of
0.0647378824	criterion for
0.0647355362	several authors
0.0647346765	toolbox for
0.0647261809	a static
0.0647156990	research indicates
0.0647098470	a java based
0.0647042067	adaption of
0.0646991019	on insulator
0.0646804773	situations such as
0.0646711362	better suited for
0.0646548087	the received
0.0646491751	the probability distribution
0.0646484661	a wider range
0.0646455021	detector with
0.0646417360	correctness of
0.0646323225	computational results on
0.0646255421	the motivation behind
0.0646253781	a prototype system
0.0646241922	published in
0.0646195938	a distributed system
0.0646178169	the degree
0.0646171082	also shows
0.0646076664	first establish
0.0646072318	best strategy
0.0646063729	recent research in
0.0646034618	interval between
0.0646021132	to improve learning
0.0645959002	based method to
0.0645948887	these data sets
0.0645917244	an improvement
0.0645913940	used in many applications
0.0645911651	the role
0.0645891396	a wireless mesh
0.0645867994	posed as
0.0645845756	the number of required
0.0645713604	a handheld
0.0645650316	an analogy
0.0645587728	several strategies
0.0645577167	the empirical results
0.0645438125	the most important issues
0.0645096277	these two
0.0644984023	key part of
0.0644933741	an efficient way
0.0644877812	compatibility with
0.0644667393	an improvement of
0.0644620601	not true
0.0644476920	the absence
0.0644363080	challenging problems in
0.0644336668	radius of
0.0644304402	a pseudo
0.0644246448	a directed
0.0644180486	employed by
0.0643950881	a participatory
0.0643929429	a sequence
0.0643906139	the rapid growth of
0.0643883288	following properties
0.0643827405	final part
0.0643679797	adopted in
0.0643658499	able to automatically
0.0643538859	to lay
0.0643500490	the design and development of
0.0643460740	the parameter values
0.0643312736	named as
0.0643300406	a circular
0.0642843180	a toy
0.0642842301	a versatile
0.0642815391	an internal
0.0642792898	the potential to provide
0.0642751739	a method to automatically
0.0642726588	a positive
0.0642684527	participating in
0.0642676930	forced to
0.0642644997	the internal structure of
0.0642561334	the final part
0.0642516120	by exchanging
0.0642430971	the special case of
0.0642333649	further reduced
0.0642325942	result of
0.0642280987	revolution in
0.0642172709	improved performance of
0.0642045016	a set of candidate
0.0641982772	the existing results
0.0641933572	evidence for
0.0641878586	our proposed scheme
0.0641691564	very good results
0.0641624950	each day
0.0641457119	the time step
0.0641418868	on network performance
0.0641375575	extraction system
0.0641371929	also showed
0.0641309328	different sites
0.0641276181	schemes do not
0.0641184312	a teacher
0.0641147003	the importance
0.0640944318	practical application of
0.0640850132	different assumptions
0.0640802889	a compound
0.0640782193	to support users
0.0640576920	the time course of
0.0640531908	element model of
0.0640447027	full potential
0.0640288875	learning system for
0.0640286045	the loss of
0.0640192172	the system in
0.0640165524	tracked by
0.0640151194	a perceptual
0.0640103707	achieved by means of
0.0640057044	topics such as
0.0639998150	computational cost of
0.0639954530	key issue for
0.0639884804	more reliable than
0.0639869054	moreover since
0.0639847546	the nature of
0.0639718551	any type of
0.0639698292	the calculation of
0.0639637272	a time interval
0.0639381937	test whether
0.0639372991	the distinction
0.0639356205	keeps track
0.0639340796	the approximability
0.0639321264	best available
0.0639259331	get better
0.0639190314	mainly depends on
0.0639108395	understood by
0.0639087990	side information at
0.0638950537	attributes such as
0.0638902036	a signal to
0.0638836668	package for
0.0638775809	different angles
0.0638671186	this paper establishes
0.0638670385	focus here
0.0638616734	very complex
0.0638480524	experience with
0.0638437533	relatively small number of
0.0638423802	verification based on
0.0638325995	for wireless ad
0.0638228916	a brief
0.0638181904	factors like
0.0638145072	in proceedings of
0.0638110030	six degrees of
0.0637991896	an efficient implementation
0.0637874839	systems rely on
0.0637774395	novel architecture
0.0637732374	a novel framework for
0.0637538389	several improvements
0.0637489989	used to efficiently
0.0637310677	work suggests
0.0637294848	a small portion
0.0637216503	empirical study on
0.0637194436	of particular interest
0.0637183398	the signal to
0.0637095929	in order to measure
0.0637088884	to achieve fast
0.0637023321	incompatible with
0.0637011312	agenda for
0.0637003961	the delay performance
0.0636990403	system based on
0.0636977965	obtained with
0.0636817020	by learning from
0.0636749606	a cryptographic
0.0636742206	a predetermined
0.0636740953	two levels of
0.0636672053	the existing techniques
0.0636661164	generalization performance of
0.0636627924	several sets of
0.0636578897	mainly because
0.0636561014	a group of users
0.0636495766	system operates
0.0636398147	the field of image
0.0636297209	this paper defines
0.0636192550	the presentation
0.0636149621	course at
0.0635909402	a bottom
0.0635817810	often suffer from
0.0635756071	recognition from
0.0635541575	connected through
0.0635220855	the vicinity
0.0635196012	the computational requirements
0.0635063027	completely different
0.0635058827	the error performance
0.0634964650	to grow
0.0634940155	a given target
0.0634839323	attempted to
0.0634830450	integration into
0.0634768648	the communication performance
0.0634764333	the equivalence
0.0634736881	in two ways first
0.0634718307	by composing
0.0634689904	several limitations
0.0634407270	a constructive
0.0634356002	a specific class
0.0634288653	research area in
0.0634276218	the modeling process
0.0634271199	a ptas
0.0634191986	a basis for
0.0634158480	three basic
0.0634116072	by changing
0.0634092818	large collection of
0.0634003597	density function of
0.0633987467	the classification task
0.0633926912	to mark
0.0633914249	estimation under
0.0633864327	a subset of nodes
0.0633840633	a campus
0.0633804448	the dependence
0.0633780066	a certain type
0.0633737092	further increase
0.0633696437	other sources
0.0633605771	use today
0.0633546240	to keep track
0.0633527502	very sensitive
0.0633510832	the credibility of
0.0633463204	a robust method
0.0633395115	key challenge in
0.0633272634	pay for
0.0633232262	to record
0.0633193851	the earliest
0.0633069115	angle of
0.0632835587	an eye
0.0632827612	the inclusion of
0.0632778080	the segmentation of
0.0632771503	respect to
0.0632763385	an adaptation
0.0632557897	the implementation details
0.0632543589	different lengths
0.0632501632	the time course
0.0632231662	challenge because
0.0632218002	advantages such as
0.0632196467	a fast algorithm for
0.0632173966	a bootstrap
0.0632033338	already developed
0.0632001452	under reasonable
0.0631996329	field of
0.0631985234	a prediction model
0.0631957474	the performance metrics
0.0631929635	the first study
0.0631885302	by implementing
0.0631861874	the graph structure
0.0631859307	a forum
0.0631756089	a novel approach for
0.0631746029	the paper concludes with
0.0631702344	a new representation
0.0631679597	method compared to
0.0631362727	example to demonstrate
0.0631348919	appropriateness of
0.0631339832	only few
0.0631177189	the ergodic capacity of
0.0631040206	however most existing
0.0631014027	the time evolution of
0.0630952855	a novel design
0.0630849085	a set of points
0.0630755470	each part
0.0630714601	three typical
0.0630560431	a significant amount of
0.0630463293	tendency to
0.0630453392	a translation
0.0630214484	obtain better
0.0630195478	questions such as
0.0630182023	shifted from
0.0630149384	arise in
0.0630087693	sort of
0.0630039322	than state of
0.0630009591	considerably more
0.0629983865	a classification problem
0.0629872766	more successful
0.0629857193	to respond to
0.0629793299	domains like
0.0629723851	exact solution of
0.0629578464	an acceleration
0.0629499124	order to identify
0.0629482818	lifetime of
0.0629466021	an air
0.0629458366	leading cause
0.0629279059	further reduction
0.0629231197	a shallow
0.0629178921	the raw
0.0629117225	inclusion of
0.0629111005	watermarking based on
0.0629106277	utility of
0.0629017719	a wide
0.0628838563	able to construct
0.0628694821	methods do not
0.0628606169	al 2008
0.0628541091	dynamically based on
0.0628521256	a popular
0.0628454115	recommended by
0.0628365020	by simulating
0.0628128352	in order to gain
0.0628126558	the number of hidden
0.0628115374	the novelty
0.0628090925	order to evaluate
0.0628065882	and quantification of
0.0628065707	a novel algorithm for
0.0627944636	method gives
0.0627936219	but not
0.0627849984	cost associated with
0.0627808951	the performance loss
0.0627781615	this paper contributes
0.0627755001	does not suffer
0.0627705900	to substitute
0.0627667701	a robotic
0.0627634177	a case study of
0.0627584965	the bag of
0.0627541498	deficiency of
0.0627410077	the theoretical framework
0.0627258120	the numerical simulation
0.0627164375	different combinations of
0.0627103559	an interpolation
0.0627091113	an order
0.0626995171	selected as
0.0626886331	wealth of
0.0626869611	achieved if
0.0626866820	same order
0.0626856654	populated with
0.0626785985	different types
0.0626712921	discovered by
0.0626620200	far more
0.0626565533	three popular
0.0626487398	the numerical method
0.0626486115	impossible to
0.0626480708	operating over
0.0626323547	the spatial distribution
0.0626311278	guaranteed to
0.0626199795	a case study on
0.0626026960	collected over
0.0625959663	to interact with
0.0625952275	not required
0.0625940581	an atomic
0.0625898605	problem related to
0.0625796684	this correspondence
0.0625629770	credibility of
0.0625619543	advantages in terms of
0.0625589343	more strongly
0.0625506843	set of n
0.0625468501	the hierarchical structure
0.0625380210	compensating for
0.0625286324	graph with
0.0625191954	the weight
0.0625084147	the data model
0.0624940812	an element
0.0624924265	require less
0.0624916424	our contribution
0.0624770681	the key technologies
0.0624632191	defined in terms
0.0624602231	a wide array of
0.0624571225	defined in
0.0624570178	same domain
0.0624513525	progress in
0.0624511788	optimal set of
0.0624288457	or simply
0.0624257052	main characteristics of
0.0624129084	the difference
0.0624064870	the main contributions of
0.0623994208	a randomized
0.0623988713	by solving
0.0623858609	an l
0.0623840297	to take advantage
0.0623837153	progression of
0.0623713544	stands for
0.0623696695	a promising
0.0623693612	approach provides
0.0623621524	performance benefits of
0.0623490969	measure between
0.0623475362	datasets show
0.0623440409	system utilization
0.0623392987	further enhanced
0.0623376709	cooperating with
0.0623367580	collaborate with
0.0623274934	a curved
0.0623258856	used for training
0.0623076960	the basal
0.0623051994	unit time
0.0622971352	also examined
0.0622875607	different situations
0.0622793006	also introduce
0.0622791529	a consistent
0.0622776133	annotated by
0.0622740462	a wavelet
0.0622712327	listed in
0.0622700881	to download
0.0622631723	the probability of error
0.0622566890	to watch
0.0622555851	evaluated via
0.0622504759	the magnitude
0.0622415779	useful features
0.0622382356	a linear regression
0.0622362048	an important application
0.0622360555	a straight
0.0622173374	to highlight
0.0622122476	typology of
0.0622116756	more sensitive to
0.0622090782	novel idea
0.0622039449	a number of challenges
0.0621998042	propagated to
0.0621962481	least number of
0.0621937210	the paper focuses on
0.0621871906	status of
0.0621823089	the most complex
0.0621808495	dependence of
0.0621679314	the use case
0.0621637202	crucial role in
0.0621565887	a global optimization
0.0621502431	exist in
0.0621487247	exchange among
0.0621484833	a system based
0.0621470630	by discussing
0.0621451370	set containing
0.0621256652	the connection
0.0621239024	analyzed by
0.0621215657	the same amount of
0.0620776781	second order statistics of
0.0620730337	the sum
0.0620647627	philosophy of
0.0620612467	starts by
0.0620604863	over state of
0.0620581954	the maximum degree
0.0620497172	an important research
0.0620350023	coexist in
0.0620216926	the third
0.0620069631	wishes to
0.0620055624	the performance measures
0.0620004875	to take advantage of
0.0620004875	to compensate for
0.0619913269	every single
0.0619858294	work explores
0.0619797149	boundary between
0.0619795350	any size
0.0619698292	a result of
0.0619698292	the behaviour of
0.0619682168	optimal solution of
0.0619540875	to participate in
0.0619440850	this formalism
0.0619431976	total amount
0.0619342673	the most powerful
0.0619311479	synchronized with
0.0619214040	the question whether
0.0619072135	a high level of
0.0619031559	a discussion of
0.0618982097	performance enhancement of
0.0618952985	good balance between
0.0618886556	evaluations show
0.0618857153	a perfect
0.0618827612	a sample of
0.0618755007	the desire
0.0618747476	quarter of
0.0618706871	a proof of
0.0618703983	an effective and efficient
0.0618623887	some typical
0.0618614842	matching based on
0.0618337236	amount of training
0.0618283832	to formulate
0.0618249067	directly into
0.0618146870	the flow of information
0.0618049217	an effective technique
0.0618035430	several experiments
0.0617995831	received much attention in
0.0617949644	many authors
0.0617933388	a pan
0.0617875223	often required
0.0617847084	a commercial
0.0617830910	to evaluate and compare
0.0617788194	several scenarios
0.0617559434	to contribute
0.0617515692	change during
0.0617502465	two extreme
0.0617345082	implemented into
0.0617303963	an obvious
0.0617299503	the verification of
0.0617254896	useful tools
0.0617202325	a pattern recognition
0.0617200270	image into
0.0617177168	to employ
0.0617067185	more involved
0.0617054391	the expectation
0.0617006035	critical value
0.0616990564	wants to
0.0616965146	a bag
0.0616927023	a sustainable
0.0616870346	not scale well
0.0616835813	further reduce
0.0616807246	a method to
0.0616797791	support system for
0.0616735035	the feature set
0.0616684924	collaborating with
0.0616684390	paradigm for
0.0616575014	work processes
0.0616498223	ofdm system with
0.0616488359	critical step in
0.0616402999	our empirical results
0.0616366295	perceived by
0.0616257165	performance depends on
0.0616232639	the relative importance
0.0616223360	the l 2
0.0616196938	the proposal
0.0616148319	a performance analysis
0.0616102369	for evaluating
0.0616001372	a natural way
0.0615997478	the second scheme
0.0615959990	give examples
0.0615945801	the same type
0.0615821161	to come
0.0615817276	primarily due to
0.0615536932	control system with
0.0615529070	stated as
0.0615524285	the first type
0.0615479544	a genuine
0.0615449759	existed in
0.0615415734	performed through
0.0615254882	evolutionary approach for
0.0615239151	grounded in
0.0615175252	the viewpoint
0.0615137214	the past few
0.0614971765	truth data
0.0614953916	complexity than
0.0614930907	a step
0.0614708258	the system architecture
0.0614507333	a parameter
0.0614407704	these two problems
0.0614369993	do not depend on
0.0614330392	analyzed in terms of
0.0614295389	the interplay
0.0614284325	very large number
0.0614268769	different criteria
0.0614210617	the web as
0.0614210617	the task to
0.0614182911	key element in
0.0614179313	translation from
0.0613967403	presented in order
0.0613959297	value of
0.0613852404	environments such as
0.0613808827	the detection accuracy
0.0613807942	an undesirable
0.0613747476	elaboration of
0.0613711853	the same frequency
0.0613702593	of size n
0.0613696739	various stages
0.0613651311	the onset of
0.0613616824	several tests
0.0613503976	many works
0.0613478496	drawback of
0.0613433071	another important
0.0613391535	designed to deal with
0.0613238911	the information provided
0.0613228872	the most well known
0.0613177494	a kind of
0.0613171001	an emphasis on
0.0613126108	possible future
0.0613124908	determine if
0.0613123136	expressions for
0.0613111089	taking into account both
0.0613001996	the system by
0.0613000789	interact with other
0.0612987014	consequence of
0.0612933683	added into
0.0612871378	a polynomial time
0.0612824864	encouraged to
0.0612758518	the advancement
0.0612756924	difficult task in
0.0612737523	further investigate
0.0612711100	the main characteristics
0.0612690834	an inverted
0.0612678787	lost in
0.0612470574	this paper concerns
0.0612442322	completeness of
0.0612396559	efficiency compared to
0.0612299056	also known as
0.0612233596	assigned by
0.0612162913	to repair
0.0612004519	this paper derives
0.0611995171	selected from
0.0611981822	a file system
0.0611977634	a very simple
0.0611937210	a general class of
0.0611780063	to design and implement
0.0611682338	any single
0.0611676107	challenging since
0.0611673582	applied to other
0.0611375767	the visual quality
0.0611125067	the error rates
0.0611115668	a control strategy
0.0611078553	suitability of
0.0610858735	further extended
0.0610853906	a large body of
0.0610772228	by distributing
0.0610767691	invest in
0.0610722622	over wireless
0.0610682166	a technique called
0.0610662583	addressed through
0.0610651427	beneficial for
0.0610622085	specificity of
0.0610566116	a hospital
0.0610560597	specified by
0.0610259705	expressiveness of
0.0610159148	both analytically and
0.0610089926	a super
0.0610040930	a command
0.0609937514	the reduction of
0.0609909997	not valid
0.0609754108	take care of
0.0609698292	the determination of
0.0609668447	to confirm
0.0609469504	strives to
0.0609439503	the abundance
0.0609432976	for coordinating
0.0609390476	to perceive
0.0609379212	the use of multiple
0.0609378066	the elaboration
0.0609349199	the previous methods
0.0609207452	ever before
0.0609205639	evolved from
0.0609182787	by allocating
0.0609168053	this paper proves
0.0609135144	a complete set
0.0609131980	increasingly important in
0.0609060289	any user
0.0609022092	several challenges
0.0608974573	new formulation
0.0608922686	the execution environment
0.0608906977	the proliferation of
0.0608838315	a computer
0.0608625868	optimized for
0.0608625057	to concentrate
0.0608481765	the second problem
0.0608402393	the quest
0.0608200314	a projective
0.0608152474	set s of
0.0608092551	our experimental evaluation
0.0608026784	the existing solutions
0.0608006499	any particular
0.0608003207	used for solving
0.0607937991	different forms
0.0607923479	algorithm capable of
0.0607839063	training set of
0.0607679534	do not include
0.0607589788	behavior under
0.0607345011	ranked by
0.0607171060	a fraction
0.0607156653	the information content
0.0607145951	by looking at
0.0607042257	occur due to
0.0606992371	the problem of joint
0.0606941063	work extends
0.0606924393	this work explores
0.0606918801	an inherent
0.0606807246	the variation of
0.0606794560	the main source
0.0606784316	the first known
0.0606764065	do not address
0.0606735338	performed via
0.0606624942	a simple approach
0.0606585390	a parsimonious
0.0606565601	stored at
0.0606477909	system configuration
0.0606471926	approach to deal
0.0606471086	a broad spectrum of
0.0606445937	for predicting
0.0606438692	operate in
0.0606410137	displayed by
0.0606291272	the system on
0.0606277085	an important area
0.0606253483	does not suffer from
0.0606218875	performance with respect to
0.0606207926	amount of information
0.0606109445	the number of objects
0.0606048998	an advantage
0.0606018048	the square root of
0.0605871120	the basis
0.0605861824	grounded on
0.0605859565	the versatility
0.0605829053	to read
0.0605717076	to correlate
0.0605647955	other works
0.0605615137	the number of times
0.0605548991	to learn about
0.0605494985	the subject
0.0605452512	operated in
0.0605394164	a new procedure
0.0605298865	the same problem
0.0605216220	those observed
0.0605175609	the perception of
0.0605007485	occurs in
0.0605003351	major challenge for
0.0604997360	quite different
0.0604937062	a soft
0.0604865049	in addition to providing
0.0604828133	any device
0.0604806171	a very high
0.0604797880	seven different
0.0604794153	difference between two
0.0604700491	the built in
0.0604626315	an explicit formula for
0.0604593782	this paper makes
0.0604529220	more robust against
0.0604493418	different degrees
0.0604462396	the short time
0.0604413628	do not need
0.0604410568	a battery
0.0604407041	the steady
0.0604260057	amount of power
0.0604160108	a diverse set of
0.0604150810	in comparison with
0.0604127440	a 90nm
0.0604101738	a strategy
0.0604066453	worked on
0.0604051692	a lattice
0.0604017715	a template
0.0603859338	method suitable for
0.0603836195	the energy consumption of
0.0603707971	a model to
0.0603696728	primarily on
0.0603678198	a significantly higher
0.0603633267	complicated by
0.0603592277	performance of existing
0.0603515352	do not perform
0.0603498412	running at
0.0603446262	a trivial
0.0603421194	a significant reduction
0.0603411692	the model consists
0.0603357547	completed by
0.0603299650	to determine if
0.0603228020	the paper gives
0.0603179720	order to minimize
0.0603065707	a population of
0.0603030080	generated during
0.0602921491	a design method
0.0602920628	the existing approaches
0.0602915328	a route
0.0602838958	performance compared with
0.0602799557	interpreted by
0.0602696728	start with
0.0602563862	simple way
0.0602451959	an answer
0.0602300269	met by
0.0602011312	prefer to
0.0601975412	a weighting
0.0601963109	also includes
0.0601951396	large range of
0.0601908314	derived by using
0.0601895503	with other state of
0.0601877695	a composition of
0.0601842926	determined through
0.0601673301	promising technique for
0.0601644997	the stochastic nature of
0.0601630231	many state of
0.0601548802	discovery based on
0.0601413185	a technique
0.0601367285	to significantly increase
0.0601310005	the effectiveness
0.0601233369	integrated within
0.0601223223	a closed
0.0601221079	discussion on
0.0601187612	a partial
0.0601106937	a naive
0.0601055572	novel approach
0.0600947476	the traditional methods
0.0600890381	a precise
0.0600841307	driven development of
0.0600806555	detection system based on
0.0600795078	superior performance of
0.0600790930	a panel
0.0600784391	filtered by
0.0600770719	a great number
0.0600709179	without loss
0.0600549000	common set of
0.0600482714	results achieved by
0.0600476144	the convergence analysis
0.0600415734	generated through
0.0600412121	prototype implementation of
0.0600343260	better solutions
0.0600324864	myriad of
0.0600282738	by measuring
0.0600157235	made possible
0.0600133616	tailored for
0.0600122687	involvement of
0.0600017291	the key features
0.0599836008	several researchers
0.0599774805	the added value of
0.0599747720	condition for
0.0599743029	possible to create
0.0599699606	an instance of
0.0599698292	the sense of
0.0599698292	the capability of
0.0599575402	the use of mobile
0.0599338118	instrumental in
0.0599179923	period of
0.0599161299	new methodology
0.0599154484	a maximum
0.0599011746	system employs
0.0599007910	a consensus
0.0598993143	investigated under
0.0598839409	whole image
0.0598773401	our results showed
0.0598755007	a concave
0.0598627658	an approach based on
0.0598626638	presented to
0.0598611790	preserved by
0.0598498642	used to establish
0.0598477968	any language
0.0598454115	varies from
0.0598443693	the other agents
0.0598351387	often results in
0.0598307343	a regular
0.0598267204	recorded at
0.0598262395	the subject of
0.0598058689	essential to
0.0598040038	to change
0.0598001700	relevance of
0.0597937876	transmitted by
0.0597850277	brief description of
0.0597836581	the boundedness
0.0597778454	any pair
0.0597732374	a period of
0.0597698068	this difficulty
0.0597663938	a certain level of
0.0597636129	to process
0.0597481461	the system as
0.0597371929	our findings
0.0597345011	removed by
0.0597309926	the space complexity
0.0597304925	performed at
0.0597223532	the cartesian product of
0.0597222524	the control system
0.0597047839	a self
0.0597023273	for compressing
0.0596958400	the memory requirements
0.0596923521	the solvability
0.0596898203	the obtained results show
0.0596882809	by highlighting
0.0596864271	the computation cost
0.0596833643	demand for
0.0596608574	a simple but effective
0.0596592205	performed over
0.0596522582	important issue for
0.0596430455	the aim
0.0596321071	up to 2
0.0596239346	the geometry
0.0596097825	approaches such as
0.0596046722	important issues in
0.0596001799	specific class of
0.0595951684	the communication channel
0.0595935661	the capacity region of
0.0595860179	studied under
0.0595817276	largely due to
0.0595810661	the representation of
0.0595703179	studied by
0.0595676706	to coordinate
0.0595522489	the exact value
0.0595389374	issues associated with
0.0595272437	not properly
0.0595270131	various domains
0.0595197842	a safe
0.0595139370	a significant impact on
0.0595024932	the main features
0.0594929061	the relation between
0.0594899897	the new framework
0.0594873027	a new generation
0.0594772794	probabilistic model of
0.0594736007	the 3d shape
0.0594657931	three groups
0.0594637885	successfully used
0.0594630278	a number of issues
0.0594622495	great interest in
0.0594547116	the previous results
0.0594496554	most critical
0.0594481633	solved in
0.0594422053	the initial data
0.0594378169	reflection on
0.0594363791	these notions
0.0594329453	identified through
0.0594318876	a summary
0.0594272179	performed to show
0.0594229447	main cause
0.0594187191	a great potential
0.0594177737	an interaction
0.0594114302	learns from
0.0594064870	the current status of
0.0594025120	a systematic literature
0.0593997279	a supervised learning
0.0593930635	this paper identifies
0.0593882340	proposed to deal with
0.0593834134	last part
0.0593590237	regarded as one
0.0593587666	this restriction
0.0593579552	in order to derive
0.0593479972	a number of examples
0.0593418830	the best overall
0.0593345549	four different
0.0593296906	starting point to
0.0593282168	optimal solution with
0.0593220945	the cover time
0.0593153223	mean average
0.0592986754	runs at
0.0592828054	corrupted with
0.0592782283	even better
0.0592730933	number of processing
0.0592649880	to tag
0.0592638850	and easy to implement
0.0592575987	key components of
0.0592401041	the simulated results
0.0592381253	to guess
0.0592330239	generalization ability of
0.0592213903	the robust stability
0.0592193447	essential step in
0.0592177045	current research in
0.0592063843	a regression model
0.0592031604	the formal model
0.0591978443	a fluid
0.0591942216	at least two
0.0591810073	vary from
0.0591710720	a rich
0.0591611653	limitation of
0.0591553034	the overall network
0.0591545696	superior performance in
0.0591518142	however none of
0.0591462116	the file system
0.0591176131	improved performance in
0.0591175791	the simulated data
0.0591119968	images by using
0.0590955555	critical role in
0.0590930505	several variations
0.0590756818	some recent
0.0590662731	majority of
0.0590513839	a coarse
0.0590471117	holds for
0.0590393725	data set from
0.0590393147	a predictor
0.0590277412	problem of efficiently
0.0590243330	various aspects
0.0590069581	amount of resources
0.0590055687	by shifting
0.0589858759	our experimental results
0.0589840796	the appropriateness
0.0589836008	through analyzing
0.0589782041	a desktop
0.0589772883	technique uses
0.0589698292	a database of
0.0589680433	a sufficient condition for
0.0589564661	an efficient implementation of
0.0589506286	an m
0.0589378528	this paper details
0.0589178349	data model for
0.0589101796	the system design
0.0589095664	a client
0.0589077633	a semiconductor
0.0588937991	different modules
0.0588912658	new class
0.0588891535	obtained by means of
0.0588889803	attention because
0.0588826854	a great impact
0.0588809641	overall cost
0.0588806848	pace with
0.0588615137	the number of active
0.0588592418	suitable for use in
0.0588567367	demonstrated on
0.0588505352	success of
0.0588413114	a pixel
0.0588399041	the gradient of
0.0588368326	an efficient tool
0.0588357466	employment of
0.0588294059	order to represent
0.0588244452	the mechanical design
0.0588082772	severity of
0.0588028060	rise to
0.0587974047	evaluated over
0.0587949229	an unreliable
0.0587819615	proved under
0.0587814910	the existing models
0.0587788290	accessible at
0.0587782982	a successful
0.0587541501	quest for
0.0587517326	an academic
0.0587504097	an insight
0.0587448757	the sequence of
0.0587377668	cooperate with
0.0587357920	also briefly
0.0587345011	quantified by
0.0587141691	the shortcoming
0.0587085604	two parts
0.0587004172	high cost of
0.0586981646	in order to control
0.0586958400	the relevant information
0.0586877906	analogy with
0.0586871600	for detecting
0.0586807246	the improvement of
0.0586621812	the weakness
0.0586608106	through computer simulations
0.0586556682	further investigated
0.0586517110	the most similar
0.0586394987	the radial basis
0.0586366673	a subset
0.0586359821	performance as compared to
0.0586273325	detection and tracking of
0.0586212839	necessary to develop
0.0586032048	the model of
0.0585986905	certain classes
0.0585951281	a high number
0.0585870931	the surface of
0.0585860739	the opportunity
0.0585810661	the assessment of
0.0585781689	the problem at hand
0.0585728269	the right to
0.0585626197	use of e
0.0585599148	then applies
0.0585596492	very significant
0.0585526977	recorded in
0.0585526977	runs in
0.0585468501	the numerical solutions
0.0585462297	a multivariate
0.0585438446	linked by
0.0585434678	to induce
0.0585223036	the same group
0.0585085112	restriction on
0.0585050405	lot of attention in
0.0584823539	a toolkit
0.0584801187	able to support
0.0584770924	a balanced
0.0584718432	the purpose
0.0584695115	obtained during
0.0584637531	vital role in
0.0584611033	amount of computation
0.0584593607	highly non
0.0584568372	need to address
0.0584547723	number of transmit
0.0584530418	estimation with
0.0584436684	this article focuses on
0.0584282177	various fields
0.0584252797	a parametric
0.0584232374	an information system
0.0584202457	possible to apply
0.0584065014	directly without
0.0583954934	to transform
0.0583891500	detection system based
0.0583873794	needing to
0.0583864241	possible to estimate
0.0583859302	the system with
0.0583827612	to adapt to
0.0583768512	effective method for
0.0583737523	often limited
0.0583711056	quantity of
0.0583642756	the computational results
0.0583552111	this paper highlights
0.0583379882	effective approach to
0.0583374843	the vertices of
0.0583349795	an area
0.0583318070	the topological structure
0.0583241628	contexts such as
0.0583231734	a scaled
0.0583215020	performs very
0.0583192068	further develop
0.0583090511	minimum possible
0.0583065707	the intersection of
0.0582943684	selected according to
0.0582893168	ones obtained
0.0582696728	reports on
0.0582689904	without reducing
0.0582614955	a prerequisite
0.0582594988	each sample
0.0582555858	the energy of
0.0582546931	a custom
0.0582375735	measured through
0.0582363573	approach aims to
0.0582333709	twice as
0.0582316125	order to simulate
0.0582297884	a nontrivial
0.0582258611	new algorithm called
0.0582235049	stuck in
0.0582095692	several approaches
0.0582056159	a particle swarm
0.0582036009	the derivation
0.0581997060	a wireless sensor
0.0581951717	small amount
0.0581946385	a data model
0.0581885217	a necessary and sufficient condition for
0.0581884506	interplay of
0.0581862431	not covered
0.0581690362	a computer simulation
0.0581661123	the relevance
0.0581599554	the same domain
0.0581584124	a recurrent
0.0581394372	optimal values of
0.0581322921	accelerator for
0.0581316864	a nice
0.0581281655	parameters like
0.0581138887	a characterization
0.0581082312	some fundamental
0.0581043145	an equivalence
0.0580815169	different aspects of
0.0580524285	the same task
0.0580462661	to say
0.0580462233	developed to
0.0580372474	absent in
0.0580304121	the root cause of
0.0580185231	provides better performance
0.0580128732	to charge
0.0579913275	to verify whether
0.0579911544	favorably with
0.0579815242	takes less
0.0579650198	a sudden
0.0579587313	a new graph
0.0579557750	diverse range of
0.0579504814	encountered by
0.0579451158	getting more
0.0579397010	predictive power of
0.0579313274	this proposal
0.0579293012	efficiency under
0.0579245593	conducted in
0.0579124668	by sending
0.0579076987	significantly different
0.0579037909	a new technique
0.0578998736	a wide variety
0.0578920526	a situated
0.0578781276	the diagnosis of
0.0578757831	any pre
0.0578727303	perspective on
0.0578565767	the variational iteration
0.0578507768	benchmarks show
0.0578459718	improved version of
0.0578438157	given by
0.0578313115	a quadratic
0.0578294059	order to explore
0.0578267691	versatility of
0.0578224277	do not change
0.0578136502	the number of parameters
0.0578134520	used to explore
0.0578032581	the suitability
0.0578025053	order to construct
0.0577964175	proposed algorithm uses
0.0577887637	by synthesizing
0.0577749991	do not need to
0.0577629552	pool of
0.0577442322	testbed for
0.0577365996	simple model of
0.0577345011	recover from
0.0577300269	monitored by
0.0577274111	a daunting
0.0577140714	techniques allow
0.0577106188	each operation
0.0577040553	any prior
0.0576953689	a discipline
0.0576886698	a host
0.0576842813	the second model
0.0576817947	the primary and secondary
0.0576766709	the other algorithms
0.0576686825	the security properties
0.0576679418	a surrogate
0.0576577921	a linear programming
0.0576499190	application example
0.0576494058	segmented by
0.0576353659	used to integrate
0.0576283058	more and more important
0.0576160821	recognition under
0.0576156307	to arrive
0.0576116030	used to examine
0.0576008826	scope of
0.0575949039	a necessity
0.0575915638	proceed to
0.0575901724	to assess whether
0.0575871418	addressed in
0.0575816636	to alter
0.0575676930	weakness of
0.0575555386	summarized as
0.0575531040	the new hybrid
0.0575507092	the proposed routing
0.0575499106	the upper and lower
0.0575428893	to improve classification
0.0575410606	illustrated on
0.0575399440	investigated in
0.0575378800	algorithm compared with
0.0575238721	situated in
0.0575233122	established through
0.0575110496	both discrete and
0.0574998127	a heterogeneous
0.0574957154	for improving
0.0574916679	especially if
0.0574911656	of thousands of genes
0.0574889089	of size k
0.0574885302	this topic
0.0574781654	viewed from
0.0574729727	rooted in
0.0574715732	arises in
0.0574671484	the federal
0.0574594816	an association
0.0574521569	tested with
0.0574489477	typically based on
0.0574410855	proliferation of
0.0574397781	strive to
0.0574370119	most widely
0.0574361742	put on
0.0574331934	novel algorithm
0.0574329800	different parts
0.0574168210	a reasonable
0.0574168210	a huge
0.0574034711	derived under
0.0574030426	union of
0.0573944401	very often
0.0573801972	an antenna
0.0573787755	more systematic
0.0573681879	produce better
0.0573601532	vast amount of
0.0573586023	the asymptotic behavior
0.0573513602	two forms of
0.0573507226	at hand
0.0573401716	trapped in
0.0573279539	the overall system performance
0.0573252026	an incorrect
0.0573189853	composition based on
0.0573065707	the popularity of
0.0573042614	different operating
0.0573031625	the specification of
0.0572941522	attention since
0.0572913258	to relate
0.0572909803	more interesting
0.0572853735	adapting to
0.0572799557	emerged from
0.0572793173	by converting
0.0572726981	a latent
0.0572558981	computational efficiency of
0.0572507773	a lot
0.0572489652	built into
0.0572436866	a physical
0.0572391607	wish to
0.0572379538	investigated through
0.0572153924	need to support
0.0572151134	a new framework
0.0572031135	a good tradeoff
0.0571911393	the hardware implementation
0.0571817826	a direct impact
0.0571798320	time bounds
0.0571588561	not satisfy
0.0571584124	a repository
0.0571527330	six different
0.0571509647	ingredient of
0.0571479610	a handful
0.0571450313	two kinds
0.0571269764	a data structure
0.0571258998	critically on
0.0571231284	often called
0.0571195437	a reusable
0.0571156138	an inequality
0.0571142523	a grounded
0.0571087683	some sense
0.0571083831	purpose of
0.0571044242	bound of
0.0571007636	detect changes in
0.0570990454	performed during
0.0570988346	in order to apply
0.0570937148	the international
0.0570930752	a substantial amount of
0.0570929417	used to combine
0.0570838830	ends with
0.0570781127	contrast to
0.0570696649	to talk
0.0570673165	currently used
0.0570524285	the first solution
0.0570384093	the method to
0.0570167058	novelty of
0.0570093445	problem becomes
0.0570091359	recently proposed to
0.0569998082	use of mobile devices
0.0569951071	schemes such as
0.0569878594	the main causes
0.0569852288	this paper builds
0.0569845906	the number of observations
0.0569780030	to release
0.0569693643	decrease in
0.0569684390	requirement for
0.0569637451	two categories
0.0569615908	our preliminary results
0.0569586703	no solution
0.0569368307	tries to
0.0569339091	more serious
0.0569263839	while supporting
0.0569262395	the incorporation of
0.0569262395	an application to
0.0569259797	future research on
0.0569254759	the tradeoff
0.0569206573	the structural properties
0.0569191279	other hand
0.0569091395	observed at
0.0569079453	implemented within
0.0568968312	the prevalence of
0.0568891972	utilized to
0.0568836886	improved by using
0.0568757614	established between
0.0568730757	efficient approach for
0.0568714325	little impact
0.0568668986	different objectives
0.0568630278	the problem of efficiently
0.0568526382	in order to efficiently
0.0568506727	scheme in terms of
0.0568445646	given to show
0.0568316612	automatic method for
0.0568295569	a substantial
0.0568276046	performed within
0.0568264119	a concrete
0.0568189970	captured from
0.0568045487	no previous
0.0567917995	sensors such as
0.0567894534	an examination of
0.0567837500	a coordinated
0.0567836008	not explicitly
0.0567671849	the projected
0.0567653768	freely available for
0.0567564661	the main characteristics of
0.0567362636	design problem of
0.0567343724	a recently introduced
0.0567312780	past few
0.0567144996	roadmap for
0.0567062015	analyzed through
0.0567034711	generally not
0.0566974418	a profound
0.0566783695	functioning of
0.0566676669	a weak
0.0566653791	composed of several
0.0566615137	the number of neurons
0.0566563678	some simulation results
0.0566503335	to select appropriate
0.0566467883	estimation accuracy of
0.0566461361	the first steps
0.0566457878	the disadvantage
0.0566412922	form expression of
0.0566363101	a given network
0.0566320013	a highly
0.0566219853	a metaheuristic
0.0566179061	the second part of
0.0566142187	various components
0.0566121193	general model for
0.0566022886	this kind
0.0566010097	an example application
0.0565954609	other people
0.0565945990	discussion of
0.0565712872	tested through
0.0565668159	to separate
0.0565665641	to see
0.0565579385	different choices
0.0565572921	decreased with
0.0565509063	without prior
0.0565472703	a significant role in
0.0565465560	appropriate parameters
0.0565389897	onset of
0.0565230241	acquired at
0.0565111938	more suitable for
0.0565091722	located on
0.0565071946	any number of
0.0565065166	provided through
0.0564957575	a reduced set
0.0564896118	a suboptimal
0.0564686682	same group
0.0564676595	also suggests
0.0564670565	experimental results on several
0.0564621758	main features of
0.0564615113	used to extend
0.0564611820	the expected number of
0.0564452441	the measurement results
0.0564397952	key feature of
0.0564370542	work focuses
0.0564320694	then discuss
0.0564318499	or not
0.0564141584	engage with
0.0564078343	waiting time of
0.0564064870	the potential benefits of
0.0563998353	a new methodology
0.0563928473	a triangle
0.0563864404	main purpose of
0.0563862898	a sequential
0.0563758207	this paper offers
0.0563735196	challenging problem in
0.0563645263	some relevant
0.0563584321	the network in
0.0563542138	a theoretical analysis of
0.0563451053	the most frequently
0.0563425987	principle of
0.0563396843	a new proof
0.0563345549	under various
0.0563345549	any given
0.0563174978	a set s
0.0563131713	to yield
0.0563121074	a visualization
0.0563099096	different aspects
0.0563034885	to end
0.0563019020	tuned to
0.0562974409	also explored
0.0562949644	several steps
0.0562902418	varies with
0.0562752602	with state of
0.0562712962	then transformed
0.0562483757	profit from
0.0562388892	to allow users
0.0562382386	article aims to
0.0562337984	a browser
0.0562234611	possible to detect
0.0562192357	several studies
0.0562084474	consisting of two
0.0561903694	challenging due
0.0561740300	a rational
0.0561711354	outlook on
0.0561609815	essence of
0.0561420185	to exemplify
0.0561317407	scheme does not
0.0561296616	completely new
0.0561176053	a new notion
0.0561052181	expertise in
0.0561011558	achieved at
0.0561003333	the generality
0.0560871333	recently proposed for
0.0560789755	those obtained
0.0560771587	quite different from
0.0560768405	a region
0.0560768395	a family
0.0560765460	widespread use of
0.0560698292	an application of
0.0560501779	introduced to
0.0560265295	efficacy of
0.0560040340	the case of multiple
0.0560010484	utilized in
0.0560007421	variables such as
0.0559939324	these sub
0.0559934529	taken under
0.0559929262	a method for generating
0.0559801972	an interpretation
0.0559797916	a couple of
0.0559755415	the overall architecture
0.0559698292	the potential for
0.0559698292	the interaction between
0.0559680433	a significant reduction in
0.0559564171	minimized by
0.0559490674	a set of features
0.0559373731	method provides
0.0559254759	the occurrence
0.0559244985	the relationship
0.0559230316	a practical implementation
0.0559049063	used to achieve
0.0558941086	the automatic detection
0.0558917481	respectively moreover
0.0558911641	the richness
0.0558828417	also outline
0.0558819280	expert system for
0.0558745593	evaluated in
0.0558724044	good solution
0.0558708940	all relevant
0.0558663832	efficient algorithm to
0.0558623337	inserted in
0.0558416062	available datasets
0.0558176015	the most important features
0.0558152636	in terms of accuracy
0.0558110638	performed in order
0.0558065707	a piece of
0.0557834454	systems do not
0.0557802519	do not scale
0.0557770908	some initial
0.0557703848	two algorithms for
0.0557588720	this research focuses
0.0557493166	the design development
0.0557492555	inferred by
0.0557412787	evaluated under
0.0557364502	a strong need
0.0557294026	methods in terms of
0.0557275367	the new architecture
0.0557268367	the rapid
0.0557129882	general method for
0.0557085982	intention to
0.0557059654	management system for
0.0557036503	mix of
0.0557006798	work addresses
0.0556833823	the difference in
0.0556782883	each kind
0.0556761079	the recent advances
0.0556667393	to communicate with
0.0556342117	to edit
0.0556140474	such situations
0.0556089265	work contributes
0.0556001587	a marked
0.0555827074	amount of time
0.0555810661	the comparison of
0.0555809858	a much larger
0.0555678243	establishment of
0.0555570056	several ways
0.0555569570	increasing need for
0.0555511672	efficient way
0.0555433958	the initial results
0.0555414412	a variety of applications
0.0555389716	not suitable for
0.0555368757	simulations results show
0.0555241429	completion time of
0.0555217295	used to manage
0.0555160027	efficient in terms of
0.0555047530	communication system with
0.0555032293	two families of
0.0554947696	inconsistent with
0.0554868404	good potential
0.0554802078	always possible
0.0554747772	a web of
0.0554740531	system called
0.0554722638	a subspace
0.0554693492	an intra
0.0554680433	a detailed analysis of
0.0554653033	nine different
0.0554538843	expensive than
0.0554532073	to propose
0.0554529423	a finite time
0.0554527549	start from
0.0554486061	most researchers
0.0554405488	the existence and uniqueness of
0.0554334482	order to increase
0.0554210617	a robot to
0.0554148882	a compelling
0.0554062145	a radial basis
0.0553927386	study in order
0.0553790686	automatically based on
0.0553740496	however little
0.0553702716	received at
0.0553590296	rate compared to
0.0553584124	a bi
0.0553582476	promising approach to
0.0553479996	interface between
0.0553398704	achieves very
0.0553394288	priori knowledge of
0.0553326366	ready for
0.0553270974	a sum of
0.0553258832	performance in comparison with
0.0553230838	formed from
0.0553131252	time course of
0.0553083402	functions such as
0.0553062222	especially suitable
0.0553003453	attention in
0.0552934230	the composition of
0.0552892655	different combinations
0.0552836008	many fields
0.0552795421	a large amount of data
0.0552778454	the feasibility
0.0552712496	valid for
0.0552644997	a minimal set of
0.0552497798	popularity of
0.0552468190	not available
0.0552448467	the ability
0.0552423203	recently proposed in
0.0552310672	several methods
0.0552299783	on one side
0.0552298757	a system with
0.0552166290	a chance
0.0552144996	adequacy of
0.0551934345	dynamic self
0.0551891697	the problem in
0.0551794842	need for additional
0.0551605112	accepted as
0.0551551969	by exploring
0.0551445937	a baseline
0.0551434085	every possible
0.0551388319	three types
0.0551328805	novel class
0.0551261992	an issue
0.0551115224	a clean
0.0550916494	first time to
0.0550851870	measured with
0.0550761933	by maximizing
0.0550723623	the availability
0.0550698292	the difference between
0.0550678709	an easy to
0.0550540595	many approaches
0.0550451548	in detail
0.0550412047	in several ways
0.0550302571	each application
0.0550229727	disadvantage of
0.0550024294	used to automatically
0.0549903402	then apply
0.0549837153	documented in
0.0549833744	also highlight
0.0549819824	systematic approach for
0.0549810227	this scenario
0.0549751710	the recently developed
0.0549727453	applied to find
0.0549667628	efficient solution for
0.0549534753	more clearly
0.0549507540	treated by
0.0549425765	a threat
0.0549372562	in order to design
0.0549265721	two conflicting
0.0549262732	critical issue for
0.0549125273	less computation
0.0549110121	leads to better
0.0549021531	the development of new
0.0548884123	our results
0.0548790920	simulated by
0.0548746348	runs on
0.0548686813	deployed at
0.0548611790	tuned by
0.0548562326	some important
0.0548508435	proven by
0.0548493776	the use of virtual
0.0548486920	function of time
0.0548409515	captured at
0.0548391923	observed between
0.0548385399	prior work in
0.0548332294	a relaxation
0.0548160224	a statistical analysis
0.0548081350	a thorough analysis
0.0548073912	reached by
0.0548065707	a new framework for
0.0548044498	fails to
0.0548011563	transmitted from
0.0547756352	implementation results show
0.0547559808	at least three
0.0547365224	a designated
0.0547108686	the second contribution
0.0546858281	little support
0.0546836278	a structural
0.0546799853	important task in
0.0546732374	the cardinality of
0.0546585445	fundamental problem in
0.0546577176	robust method for
0.0546569571	to drop
0.0546569433	the point of
0.0546466497	a swarm of
0.0546358634	arbitrary set of
0.0546213991	important issue in
0.0546204058	a summary of
0.0546159033	little about
0.0546149471	entire system
0.0546100336	main result of
0.0546019284	mapping from
0.0545996796	a reverse
0.0545940592	some constant
0.0545936379	achieves much
0.0545914851	the outcome
0.0545855822	various degrees of
0.0545852144	this paper takes
0.0545817608	essential role in
0.0545810445	our results show
0.0545747121	the conclusion
0.0545706589	to rewrite
0.0545683708	central problem in
0.0545619074	four kinds of
0.0545600714	unified way
0.0545585751	in so doing
0.0545541349	the system through
0.0545529345	came to
0.0545491813	enough information
0.0545399440	potential for
0.0545365910	significance of
0.0545365129	a separate
0.0545365129	for managing
0.0545341965	issue in
0.0545307760	the promise
0.0545097638	an efficient method for
0.0545089188	analyzed under
0.0544945141	the emergence
0.0544912417	in many applications
0.0544884188	an increased
0.0544771380	a smart
0.0544709797	a combinatorial optimization
0.0544692683	a short time
0.0544598405	to exercise
0.0544575524	particular case
0.0544574496	the network by
0.0544512011	the important issues
0.0544450146	small changes in
0.0544411228	in accordance
0.0544401785	so much
0.0544326264	the computational efficiency
0.0544253578	discussed in terms of
0.0544235329	promising solution for
0.0544206651	the function of
0.0544065707	a corpus of
0.0544018700	reused for
0.0544014009	accuracy while
0.0543999905	member of
0.0543980624	the top of
0.0543979908	current work
0.0543927159	held in
0.0543756359	the global positioning system gps
0.0543705963	cardinality of
0.0543671439	a certain class
0.0543473789	desirable to
0.0543434269	defined according to
0.0543296300	required to make
0.0543147066	often seen
0.0543132692	only partial
0.0543065707	the uniqueness of
0.0542991824	many domains
0.0542989148	the other nodes
0.0542988447	to mix
0.0542967005	important area of
0.0542952219	many advantages over
0.0542910807	the use of social
0.0542844561	various examples
0.0542622318	also serves
0.0542554887	responsibility for
0.0542508338	but none of
0.0542481987	against existing
0.0542396553	derived through
0.0542358452	goal of
0.0542268746	development of e
0.0542217830	size and complexity of
0.0542065125	users do not
0.0541957220	however unlike
0.0541913074	a master
0.0541889209	evaluated and compared with
0.0541869396	various techniques
0.0541792367	other aspects
0.0541590162	with varying
0.0541541689	does not take
0.0541421326	different sub
0.0541363415	well known problem
0.0541317855	to complete
0.0541313087	increasingly more
0.0541270224	a semi
0.0541267040	a careful
0.0541208205	work demonstrates
0.0541201813	the problem with
0.0541193367	two classes of
0.0541176278	improved through
0.0541141144	extensive set of
0.0541117728	in many countries
0.0541109324	three or more
0.0541048757	the search for
0.0541034479	most valuable
0.0540997478	system with multiple
0.0540899503	the synthesis of
0.0540747887	particular characteristics
0.0540665730	consisting of three
0.0540552764	do not depend
0.0540527753	degrees of freedom in
0.0540468430	this paper attempts to
0.0540295320	a smooth
0.0540218722	the challenge
0.0540116326	another method
0.0540111356	provided to
0.0539785224	our simulation results
0.0539770773	the neural basis
0.0539768721	effective tool for
0.0539748088	in order to prove
0.0539595835	a transparent
0.0539595428	general approach for
0.0539586456	objectives such as
0.0539545314	the best individual
0.0539396284	launched in
0.0539390930	consumption while
0.0539339111	the cornerstone of
0.0539276407	many situations
0.0539022069	a mathematical
0.0539011558	created from
0.0538960375	the proposed cross
0.0538955672	many benefits
0.0538927628	an empirical study on
0.0538732902	effective way
0.0538608017	main aim of
0.0538558483	to lead
0.0538487900	key factor for
0.0538445741	type system for
0.0538411112	a questionnaire
0.0538368449	condition under
0.0538341057	a very important
0.0538126320	the number of hops
0.0538103328	recently many
0.0537982615	not only reduces
0.0537917735	this work addresses
0.0537778816	all three
0.0537768617	order to improve
0.0537654396	order to study
0.0537011743	the fundamental problem
0.0536761223	prevalent in
0.0536637340	novel technique
0.0536574673	value at
0.0536489989	possible to design
0.0536477868	proposed to describe
0.0536365924	not significantly
0.0536252440	simple method to
0.0536198557	to trigger
0.0536162162	several aspects
0.0536147724	a new formulation
0.0536115526	main advantage of
0.0535980376	a pivotal role in
0.0535928290	various parameters
0.0535801240	components such as
0.0535754808	also investigate
0.0535685049	taken as
0.0535485528	the presence
0.0535461190	many years
0.0535352751	aim of
0.0535322265	the second technique
0.0535192979	our evaluation results
0.0534988737	a numerical simulation
0.0534937441	a great
0.0534934756	a very short
0.0534890016	several datasets
0.0534885302	this observation
0.0534856475	not impossible
0.0534853987	the presence of multiple
0.0534814980	evolve over
0.0534800172	defined through
0.0534712415	a class of linear
0.0534492854	the optimality
0.0534423368	tested by
0.0534243930	the exploitation
0.0534240646	guidance for
0.0534166033	faster than other
0.0534070634	often used
0.0534067755	a triangular
0.0534064870	the paper deals with
0.0533885217	an effort to
0.0533874040	substantially more
0.0533847138	the bottom
0.0533507970	a horizontal
0.0533503333	to fall
0.0533467387	an incomplete
0.0533385884	minimum value
0.0533364334	a scenario
0.0533327074	to look for
0.0533322680	the influence
0.0533264581	for supporting
0.0533205918	era of
0.0533200908	groups according to
0.0533151225	more rapidly
0.0533121336	this paper contains
0.0533103125	but still
0.0533095336	for constructing
0.0533073864	this setting
0.0533031625	the assumption of
0.0533009358	the field of view
0.0533008420	a remarkable
0.0532864712	a seamless
0.0532781920	a passive
0.0532669702	a recognition rate
0.0532652119	subsequently used
0.0532634199	chosen by
0.0532576103	a computer vision
0.0532564519	a library
0.0532460339	growing amount
0.0532433388	a generalisation
0.0532392903	comparison of three
0.0532288319	this study focuses
0.0532278392	to ask
0.0532249383	addition to
0.0532151032	presented together with
0.0531985518	estimated by using
0.0531965657	used to specify
0.0531928048	a data center
0.0531912332	except for
0.0531882065	both continuous and
0.0531691752	time requirements
0.0531605990	the predictive power of
0.0531597485	six degrees
0.0531594537	the preliminary results
0.0531417579	technique provides
0.0531375155	to introduce
0.0531345286	a pivotal
0.0531242872	a coherent
0.0531240991	the problem becomes
0.0531212081	the minimum value
0.0531112786	eight different
0.0531048757	the solution to
0.0531048757	the increase in
0.0530934494	criteria such as
0.0530830371	the first two
0.0530759509	given to verify
0.0530747611	a concept
0.0530728597	many cases
0.0530703660	increasingly important for
0.0530672329	limited amount
0.0530664938	a dynamic bayesian
0.0530634247	difficult due to
0.0530572255	many kinds of
0.0530548205	the number of input
0.0530487643	light on
0.0530473641	to start
0.0530462883	the image by
0.0530392734	used to realize
0.0530354252	significant amount
0.0530299266	traditional approaches to
0.0530258231	a branch
0.0530256126	the mean of
0.0530218306	and perceived ease of use
0.0530201377	literature on
0.0530171484	the bag
0.0530140579	the deployment of
0.0530117539	a posterior
0.0530109444	class of multi
0.0530053034	system for supporting
0.0529992288	the sampling rate
0.0529917924	a 018
0.0529914968	only requires
0.0529890364	less than 2
0.0529837148	key factor in
0.0529834775	technique allows
0.0529723308	introduction of new
0.0529718612	development of new
0.0529673883	the tracking error
0.0529602256	the l 1
0.0529592446	to display
0.0529587458	variations due to
0.0529573525	common problem in
0.0529472721	theoretical framework for
0.0529352368	couple of
0.0529293807	also considered
0.0529266722	the originality
0.0529159597	to trace
0.0529044265	short period of
0.0528951241	neglected in
0.0528929429	a hardware
0.0528890808	used today
0.0528717076	to permit
0.0528633046	the same data
0.0528622979	for achieving high
0.0528607439	an important part of
0.0528481765	a given task
0.0528460555	more critical
0.0528459721	a temporary
0.0528384908	the high number
0.0528265187	provides insight
0.0528223349	several domains
0.0528221734	some insight
0.0528110635	a new service
0.0527930960	a special class
0.0527849480	the following paper
0.0527787270	a crucial role in
0.0527770739	possibility of
0.0527768894	a number of problems
0.0527497722	useful for
0.0527395478	associate with
0.0527219431	do not rely
0.0527208321	prospect of
0.0527203245	different characteristics
0.0527192091	by establishing
0.0527174372	approach allows
0.0527115709	a limit
0.0527113662	well known to
0.0527038297	better than traditional
0.0527022092	some additional
0.0526950734	important factor for
0.0526911058	a cross
0.0526883415	a pure
0.0526882324	various forms of
0.0526795577	predicted from
0.0526778464	very active
0.0526688406	to transfer
0.0526602595	to limit
0.0526586455	the origin of
0.0526549645	a gradient
0.0526534000	earlier work on
0.0526284397	a dynamical system
0.0526273322	implemented via
0.0526262229	this paper combines
0.0526259084	a feed
0.0526139603	those produced by
0.0526006531	simulation example
0.0525971399	a sensitivity analysis
0.0525966648	for designing
0.0525942176	recently several
0.0525897864	a calibrated
0.0525861132	a new type
0.0525822855	increasingly used in
0.0525795741	an effort
0.0525766722	the prospect
0.0525711981	the algorithm to
0.0525691988	different materials
0.0525661703	potential value
0.0525479435	reduced set of
0.0525473498	behavior during
0.0525440592	also holds
0.0525378674	the similarity between
0.0525376180	the overall goal
0.0525330562	a promising method
0.0525320435	a network on
0.0525268994	developed here
0.0524886597	in order to help
0.0524816853	with other agents
0.0524779839	idea of
0.0524731033	primary goal of
0.0524727109	a feedforward
0.0524689801	deployed on
0.0524670890	increasingly used
0.0524597919	3d reconstruction of
0.0524568920	a lie
0.0524549251	to other state of
0.0524546098	a rough
0.0524433388	both qualitative
0.0524422132	tested on three
0.0524293078	while taking
0.0524253139	the conceptual design
0.0524188499	different phases
0.0524022673	promotion of
0.0523830710	utilized as
0.0523813618	generated at
0.0523807728	realized as
0.0523771190	many ways
0.0523716982	the competitive ratio of
0.0523707759	an n
0.0523605897	a piece
0.0523604430	an electromagnetic
0.0523601872	a black
0.0523456519	a true
0.0523451711	any individual
0.0523427015	required to find
0.0523376863	a part of
0.0523271371	a good performance
0.0523253675	work environment
0.0523196471	by expanding
0.0523189830	satisfied with
0.0523186772	adopted as
0.0523130535	present here
0.0523031625	the minimization of
0.0523031625	the realization of
0.0523031625	the utilization of
0.0523012635	a majority
0.0522977714	a bag of
0.0522842690	a reactive
0.0522793055	a tiny
0.0522642465	a number of recent
0.0522515650	a relational
0.0522363373	shows better
0.0522352967	ultimate goal of
0.0522349383	the contribution
0.0522177529	advancement of
0.0522135065	the analytic
0.0522086853	novel algorithm called
0.0522068299	these two algorithms
0.0522053828	reasonable time
0.0522050356	by several orders
0.0522023582	a penalty
0.0521961510	each type of
0.0521958280	a vital role in
0.0521938553	challenging task for
0.0521826743	not work well
0.0521824483	advantageous to
0.0521822217	overlap with
0.0521655050	a prototypical
0.0521574256	scheduled on
0.0521393635	commonly used in
0.0521307067	available tools
0.0521306783	the simulation experiments
0.0521200861	the previous best
0.0520973035	the application in
0.0520915305	on log n
0.0520899503	the volume of
0.0520899037	a widely used
0.0520826918	a logarithmic
0.0520622669	proved by
0.0520576920	the mean time
0.0520504523	an example of
0.0520484384	help to improve
0.0520413917	begin to
0.0520407800	tools do not
0.0520345985	a very large
0.0520328283	the employment
0.0520319759	more difficult than
0.0520268454	a systematic way
0.0520204289	for determining
0.0520164007	heuristic based on
0.0520063802	a 035
0.0520035657	allocation based on
0.0520002026	not affected
0.0519984557	received from
0.0519978507	the system uses
0.0519929061	a means of
0.0519871209	model with two
0.0519831488	out performs
0.0519825341	algorithm in terms of
0.0519809639	the discriminative power
0.0519774288	key role in
0.0519770490	the limitation
0.0519707220	any specific
0.0519651799	introduced as
0.0519621302	visualized in
0.0519490706	the input to
0.0519373887	more abstract
0.0519329979	a commercially available
0.0519322663	sites such as
0.0519160386	understanding about
0.0519158332	to act
0.0519104662	a dramatic
0.0519088172	three key
0.0519037391	in contrast to other
0.0519001266	difficult since
0.0518995530	in order to cope
0.0518977991	retrieval system for
0.0518846653	several issues
0.0518812459	planning under
0.0518785127	also helps
0.0518782606	in order to effectively
0.0518773686	able to analyze
0.0518720061	this paper focuses
0.0518708458	show experimentally
0.0518704489	an angle
0.0518656116	work done
0.0518619660	a geometrical
0.0518570685	information from different
0.0518496106	survive in
0.0518429470	to map
0.0518404190	any loss
0.0518389615	practicability of
0.0518300942	a country
0.0518256900	the expected value
0.0518252301	the algorithm uses
0.0518228546	degradation due
0.0518189940	to exceed
0.0518051717	other parts
0.0518032572	these heuristics
0.0518011494	some common
0.0517955631	used to search
0.0517902253	the united
0.0517864712	a strict
0.0517814428	particular class of
0.0517796485	richness of
0.0517772656	a specific type of
0.0517766709	able to control
0.0517670185	for tackling
0.0517579458	by making
0.0517427962	a runtime
0.0517363860	a partition
0.0517313170	ratio between
0.0517231044	attraction of
0.0517215963	by as much as
0.0517210919	perform well on
0.0517204623	investigated by
0.0517117727	better performance in terms of
0.0517066840	algorithms in terms of
0.0516855823	necessary to achieve
0.0516844576	likelihood estimation of
0.0516833022	decreases as
0.0516732336	amount of feedback
0.0516637870	in two ways
0.0516517404	way to achieve
0.0516428624	to feed
0.0516257202	by transferring
0.0516233422	not know
0.0516198840	used to prove
0.0516149139	instrument for
0.0516114784	this article deals with
0.0515973312	two key
0.0515905852	these metrics
0.0515871603	a new idea
0.0515800410	the existing state
0.0515746303	common approach to
0.0515558631	a comparative analysis of
0.0515417393	possible to use
0.0515378674	the duration of
0.0515214391	the system under
0.0515031156	the practicality
0.0514987394	firstly then
0.0514922078	needed by
0.0514874209	necessary conditions for
0.0514783588	mining approach to
0.0514778971	different forms of
0.0514749744	a representative
0.0514702764	a binary
0.0514573924	relatively new
0.0514469076	way to obtain
0.0514407979	deviation of
0.0514376950	derived in terms of
0.0514316493	a given application
0.0514277466	hope to
0.0514022620	more similar
0.0514011604	comparable with
0.0513946297	a quick
0.0513864483	to couple
0.0513738930	advantages and limitations of
0.0513666659	the temporal evolution
0.0513582322	describe here
0.0513553939	proposed method gives
0.0513502693	different positions
0.0513500490	this class of
0.0513448762	a feasible
0.0513365648	used to minimize
0.0513365648	used to overcome
0.0513350064	the time required
0.0513313358	deriving from
0.0513309773	an electric
0.0513309181	a hypothetical
0.0513227005	the same source
0.0513183930	configured to
0.0513053631	techniques used in
0.0512989915	recognition system for
0.0512922145	by bringing
0.0512844985	the robustness
0.0512834903	decided to
0.0512800962	the information content of
0.0512606079	two aspects
0.0512567230	this paper aims
0.0512563269	a formula
0.0512560840	error due to
0.0512542651	paper gives
0.0512465995	the main components
0.0512456422	best knowledge
0.0512320608	adopted to
0.0512258942	the other one
0.0512256998	theoretic approach for
0.0512214273	a system called
0.0512064201	scene from
0.0512030361	known result
0.0511948005	in such systems
0.0511935774	a particular class
0.0511848783	typically not
0.0511844561	often considered
0.0511813401	new variant
0.0511801000	an expression
0.0511796805	a set of experiments
0.0511785605	a formalization
0.0511754515	an indication of
0.0511732374	the time required to
0.0511641039	a structural equation
0.0511636223	installed in
0.0511631253	or partially
0.0511601233	the vertices of g
0.0511508586	the significance
0.0511484704	problem by using
0.0511484156	also proved
0.0511469392	the time evolution
0.0511399866	the system for
0.0511374840	also revealed
0.0511373887	without making
0.0511271199	the tightness
0.0511267074	our experiments show
0.0511224862	to find optimal
0.0511098886	the robot to
0.0511041166	useful tool
0.0510824709	our findings indicate
0.0510759055	elements such as
0.0510747643	not supported
0.0510735500	two different ways
0.0510724430	impractical for
0.0510533912	an age
0.0510400227	collected at
0.0510304573	needed in order to
0.0510287679	the idea behind
0.0510271457	performed by using
0.0510242332	updated by
0.0510231037	behaviors such as
0.0510220348	the best
0.0510209848	a theory of
0.0510208508	to host
0.0510154817	value of information
0.0510140579	the correlation between
0.0509882890	organized as
0.0509721028	a total
0.0509716537	in wireless multi
0.0509554304	by selectively
0.0509468823	employed as
0.0509381349	recommender system for
0.0509349753	a particular class of
0.0509328519	the main feature
0.0509326264	the computational power
0.0509288153	leveraged to
0.0509265235	advancement in
0.0509167156	an architecture for
0.0509011228	even higher
0.0508780300	well in practice
0.0508704784	to peak
0.0508685582	sources such as
0.0508555198	a set of linear
0.0508529786	not hold
0.0508514125	by assuming
0.0508509109	a synchronous
0.0508324211	an ontology for
0.0508272422	one reason
0.0508191614	the problem as
0.0508136552	the power to
0.0508085171	accurate than
0.0507986350	call for
0.0507895320	a sound
0.0507826205	various issues
0.0507804276	a fixed set
0.0507798880	the model by
0.0507685070	system utilizes
0.0507615210	monitoring system for
0.0507585634	the method uses
0.0507514702	the association between
0.0507494945	a permanent
0.0507479033	changed from
0.0507461070	achievable by
0.0507436458	also give
0.0507358989	allocation for
0.0507311623	five different
0.0506781286	draw on
0.0506669595	developed within
0.0506644155	a challenging
0.0506598943	automatically find
0.0506489109	several sources
0.0506468751	shown through
0.0506437983	large database of
0.0506416059	an array
0.0506399242	on publicly available
0.0506390054	a lack of
0.0506363415	a subclass
0.0506358227	then solved
0.0506342117	to consume
0.0506306473	all involved
0.0506277828	the rise of
0.0506189640	failed to
0.0506140755	a brute
0.0506080612	offers better
0.0505934569	mainly focus
0.0505923125	to involve
0.0505866785	work investigates
0.0505696809	used in conjunction
0.0505653347	an assignment
0.0505641374	the numerical solution of
0.0505641374	the statistical properties of
0.0505622669	built by
0.0505558860	novel method
0.0505486842	sent from
0.0505445623	this paradigm
0.0505421828	different versions of
0.0505230370	a case study based on
0.0505189795	the network into
0.0505186800	a scalar
0.0505039549	effects due to
0.0505021059	number of nodes in
0.0504950090	our approach uses
0.0504935034	objective of
0.0504888383	to take place
0.0504692946	combined use of
0.0504684776	accuracy than
0.0504682107	the proposed optimization
0.0504681916	the old
0.0504653924	way to improve
0.0504407041	the majority
0.0504276935	fabricated on
0.0504166501	desire for
0.0504065707	the heart of
0.0504048965	used for comparison
0.0504033968	so forth
0.0503947424	main focus of
0.0503940616	found in
0.0503939104	not meet
0.0503861068	required number of
0.0503856961	to interact
0.0503765393	p systems with
0.0503588512	used to make
0.0503538482	the mainstream
0.0503422816	to automatically find
0.0503220998	for recommending
0.0503041180	technique known as
0.0503031625	the derivation of
0.0502946760	viability of
0.0502819536	for segmenting
0.0502780668	most common
0.0502778080	the visualization of
0.0502745316	published by
0.0502549251	a branch and
0.0502523060	a partition of
0.0502513320	only recently
0.0502506973	also called
0.0502466411	superiority of
0.0502450090	several classes of
0.0502400782	protocols in terms of
0.0502397567	also suggested
0.0502300085	a symmetric
0.0502261918	a strategic
0.0502259556	focused mainly
0.0502209571	solved by using
0.0501861663	in order to fully
0.0501812664	the training of
0.0501759233	the expressiveness
0.0501686693	a formal analysis
0.0501585178	good choice
0.0501418629	less efficient
0.0501241294	to cope
0.0501240467	tested over
0.0501216652	need to provide
0.0501162086	the efficiency and accuracy of
0.0501155944	the first technique
0.0501108575	different areas
0.0501095083	par with
0.0501088921	not captured
0.0501051146	the principal
0.0501048757	the understanding of
0.0501042412	the simplicity
0.0500949053	analyzed in
0.0500881439	a wide class
0.0500822960	way to solve
0.0500656252	the potential to improve
0.0500630209	needed in
0.0500585624	both 2d
0.0500514062	a learning based
0.0500426732	the extent
0.0500320535	a special case of
0.0500227581	a constraint
0.0500222459	to leave
0.0500221470	a method to detect
0.0500186800	a flat
0.0500085604	by optimizing
0.0500037466	lead to more
0.0499939503	the proliferation
0.0499772034	an increasingly
0.0499762003	a crucial
0.0499622966	attempts to
0.0499564690	a natural extension of
0.0499525402	various types
0.0499392608	purposes such as
0.0499324483	sought to
0.0499322287	the mean value
0.0499304602	gathered by
0.0499302035	a new language
0.0499216639	problem under
0.0499192794	novel feature
0.0499097556	generally used
0.0498864486	an attempt to
0.0498860324	operates in
0.0498843031	method to find
0.0498662583	or otherwise
0.0498634199	determined from
0.0498490317	in terms of convergence
0.0498474451	system for detecting
0.0498442590	size at most
0.0498387221	the limit of
0.0498321781	several benchmark
0.0498279833	does not support
0.0498166211	time complexity of
0.0498131230	performed with
0.0497890290	achieved while
0.0497873070	order to describe
0.0497865079	prepared for
0.0497811739	the generality of
0.0497787270	a central role in
0.0497772656	the complex nature of
0.0497735925	very general
0.0497609570	in terms of average
0.0497579365	reused in
0.0497575924	the readability of
0.0497486046	also identifies
0.0497452995	to favor
0.0497421937	a design for
0.0497399041	an assessment of
0.0497398563	a number of factors
0.0497354671	to achieve better performance
0.0497287763	the human visual
0.0497171123	extensively used in
0.0497025883	the calculation
0.0496993882	also found
0.0496980524	this work focuses on
0.0496910756	by collecting
0.0496784600	augmented by
0.0496697417	for implementing
0.0496605253	a human in
0.0496598426	changed by
0.0496532236	most promising
0.0496526035	increasingly important to
0.0496501354	a noticeable
0.0496351952	a week
0.0496329871	whole set of
0.0496291325	promise as
0.0496278052	reflects on
0.0496157111	a live
0.0496094914	a positive impact
0.0496079677	a mechanism
0.0496063749	the flexibility
0.0496025536	algorithm by using
0.0495940714	a mix
0.0495902655	a significant increase in
0.0495869498	large fraction of
0.0495843031	proposed to use
0.0495533816	the highest
0.0495376440	not exist
0.0495374635	not reflect
0.0495366093	most effective
0.0495172229	the establishment
0.0494979200	three different methods
0.0494964596	other than
0.0494900324	return to
0.0494891665	various areas
0.0494782163	by relating
0.0494724296	results in terms of
0.0494717227	the full potential
0.0494697744	promises to
0.0494582291	fabricated with
0.0494474329	interest because
0.0494404190	first introduced
0.0494351618	two steps first
0.0494225241	separately from
0.0494169504	the problem of building
0.0494165416	necessary in order
0.0494087475	any existing
0.0494085769	in many domains
0.0494061334	the door to
0.0493995233	first experiment
0.0493938981	in order to model
0.0493920752	by deploying
0.0493915880	helpful in
0.0493879419	set of k
0.0493655497	excellent performance of
0.0493638361	computer system
0.0493587563	the network as
0.0493575025	the difficulty
0.0493526232	for aligning
0.0493521329	a number of experiments
0.0493430971	the rapid development of
0.0493248664	far better
0.0493214091	last but not
0.0493031401	mechanisms such as
0.0492952856	a given set
0.0492801724	get more
0.0492729398	such as mobile phones
0.0492644997	a variable number of
0.0492601761	tests show
0.0492595103	a benchmark
0.0492555858	and control of
0.0492535202	a challenge
0.0492531240	a much simpler
0.0492515033	used for detecting
0.0492478406	the employment of
0.0492450090	two variants of
0.0492245659	independent interest
0.0492185002	to switch
0.0492095852	with differing
0.0492011189	fundamental role in
0.0491976903	a company
0.0491970964	most often
0.0491868404	work describes
0.0491858621	the definition
0.0491856695	some classical
0.0491818880	internal structure of
0.0491776788	the same accuracy
0.0491697307	estimation over
0.0491631253	by executing
0.0491495862	very recently
0.0491476092	obtained under
0.0491402655	a major role in
0.0491387930	used to facilitate
0.0491271107	approach uses
0.0491244374	number of vertices in
0.0491180731	the model with
0.0491154838	the time interval
0.0491141025	distinct from
0.0490998019	a deep
0.0490978710	to scan
0.0490678936	performs well on
0.0490642223	a new scheduling
0.0490485856	hull of
0.0490384093	a graph with
0.0490382495	to split
0.0490382062	reported by
0.0490379084	the capability
0.0490351529	advantages of using
0.0490289776	a population
0.0490288043	the same area
0.0490120571	the minimum possible
0.0490103046	typical example
0.0489975994	important factor in
0.0489905473	achieved over
0.0489880093	wisdom of
0.0489722587	wide field of
0.0489603826	recent years due to
0.0489474749	identified from
0.0489471619	concludes by
0.0489419987	the same rate
0.0489399041	a new methodology for
0.0489369627	a considerable
0.0489254515	to investigate whether
0.0489160288	in experiment 1
0.0489156860	generally more
0.0489012990	widely used as
0.0488984741	to admit
0.0488902036	a point to
0.0488869095	a desire
0.0488858135	discovered from
0.0488769478	a public
0.0488681277	a large class
0.0488624328	in many aspects
0.0488528905	the other methods
0.0488509772	the distinction between
0.0488384793	point to
0.0488290169	the temperature of
0.0488264234	accuracy and robustness of
0.0488245386	vary with
0.0488221717	the region of
0.0488136502	a set of images
0.0488070841	show empirically
0.0488045622	tested under
0.0488023231	run at
0.0487982882	a modest
0.0487961815	experiments on several
0.0487858735	only limited
0.0487846986	this paper employs
0.0487797888	written as
0.0487671453	the information obtained
0.0487516739	for accelerating
0.0487363611	the existence
0.0487321391	manner while
0.0487175035	the most commonly
0.0487110528	a set of objects
0.0487069141	able to efficiently
0.0486773813	these two models
0.0486726586	with equality
0.0486718298	the speed of convergence
0.0486715809	other existing
0.0486714943	the neural basis of
0.0486703137	usually very
0.0486700028	a small set
0.0486657082	the time series of
0.0486554169	those obtained by
0.0486391112	optimal with respect to
0.0486351952	a tendency
0.0486291272	the system from
0.0486227163	the new technology
0.0486225977	the foundation
0.0486209212	a pair
0.0486202429	a sample
0.0486125696	a semidefinite
0.0486108537	a significant improvement in
0.0486001373	the second study
0.0485987882	the efficacy
0.0485956622	considered during
0.0485893914	the spatial and temporal
0.0485835684	the following 1
0.0485823834	limited set of
0.0485725166	structure from
0.0485713769	the internal structure
0.0485685780	the validity
0.0485664545	techniques in order to
0.0485642223	a new test
0.0485552817	a new definition
0.0485512288	also demonstrates
0.0485282563	equilibria for
0.0485177598	the philosophy
0.0485169273	a biologically
0.0485019998	the need
0.0484842416	for such systems
0.0484658920	large size of
0.0484621660	a time consuming and
0.0484595329	as opposed
0.0484453071	built on top
0.0484356307	spent in
0.0484262816	for visualizing
0.0484206651	the source of
0.0484150568	the life cycle of
0.0484135776	this paper represents
0.0484132432	undertaken in
0.0484054521	a method for computing
0.0484048259	some practical
0.0484031625	a form of
0.0483956022	choose between
0.0483940473	the research of
0.0483928848	then computed
0.0483904184	but not limited to
0.0483870167	realized by using
0.0483799689	to stock
0.0483780757	main objective of
0.0483586130	the uncertainty in
0.0483549787	in experiment 2
0.0483446369	many classes
0.0483253483	various combinations of
0.0483190592	the negative effects
0.0483162086	a given number of
0.0483108308	two competing
0.0483061455	evaluated with respect to
0.0482927382	to schedule
0.0482886937	utilized for
0.0482787270	a powerful tool for
0.0482753162	decide on
0.0482737778	the next generation of
0.0482722442	and easy to use
0.0482686684	unfortunately most
0.0482598721	describe in detail
0.0482519122	growing need for
0.0482490394	no specific
0.0482459854	of up to
0.0482340469	the experimental results show
0.0482292752	not known
0.0482185757	handled in
0.0482079867	accuracy over
0.0482037391	many types of
0.0481994216	to segment
0.0481983108	possible to obtain
0.0481966945	two reasons
0.0481887433	method consists of two
0.0481735988	a detailed description of
0.0481682869	main goal of
0.0481663410	in patients with
0.0481650882	necessary to provide
0.0481538404	compensated for
0.0481513276	in more detail
0.0481498744	further analyze
0.0481477936	a relatively new
0.0481406330	for proving
0.0481286912	a wide spectrum of
0.0481274699	an optimal set
0.0481274474	particularly useful for
0.0481193367	a new technique for
0.0481193367	a fraction of
0.0481125259	a frame
0.0481110398	the two approaches
0.0481099839	this paper designs
0.0481068880	effective approach for
0.0481046497	key component in
0.0481016430	independently from
0.0481001354	to denote
0.0480776270	work considers
0.0480774108	a double
0.0480733785	explored by
0.0480702096	standardized by
0.0480693493	vision system for
0.0480659521	the strength
0.0480628820	method does not
0.0480579324	a particular problem
0.0480275653	the reason
0.0480197308	a range
0.0479953053	applied in order to
0.0479927621	basic idea of
0.0479855771	more feasible
0.0479809724	the dynamics of
0.0479654133	current approaches to
0.0479566778	a number of methods
0.0479474650	conducted by
0.0479275951	however current
0.0479262747	order to develop
0.0479239210	the syntax and semantics
0.0479211473	the first practical
0.0479103930	the scalability
0.0479099758	this sort
0.0479009983	used to help
0.0478927149	many others
0.0478859216	the total amount
0.0478836463	not restricted
0.0478796036	a big
0.0478741632	rationale for
0.0478731011	the correctness
0.0478689071	the overall quality
0.0478681439	the use of dynamic
0.0478661378	up to four
0.0478646226	a thin
0.0478631764	a number of applications
0.0478630088	opportunity to
0.0478505639	the optimal set of
0.0478253145	conclude by
0.0478237920	general problem of
0.0478197520	also supports
0.0478174418	same time
0.0477893671	the same result
0.0477868415	particularly interested
0.0477836067	acts on
0.0477819536	for securing
0.0477816298	to ignore
0.0477686895	algorithm used in
0.0477620438	designed according to
0.0477404190	then performed
0.0477308183	effectiveness and efficiency of
0.0477222524	the case in
0.0477218121	the proposed method consists of
0.0477215657	new possibilities for
0.0477204289	for generating
0.0476997884	a pre
0.0476864412	improves over
0.0476822649	course of
0.0476667393	allows users to
0.0476625400	the resulting method
0.0476584341	done at
0.0476549251	the branch and
0.0476531041	to master
0.0476524285	the first implementation
0.0476501354	a notable
0.0476355883	efficiency and robustness of
0.0476272732	to engage in
0.0476209212	a cellular
0.0476146180	a system model
0.0476145222	promising technology for
0.0476139451	the practical application
0.0475841884	by averaging
0.0475791727	implemented and tested on
0.0475667305	the creation
0.0475644997	a smaller number of
0.0475595515	some evidence
0.0475532944	a weighted sum of
0.0475524258	possible to generate
0.0475410060	still maintaining
0.0475349480	inadequate for
0.0475169582	any significant
0.0475088782	appears in
0.0474987511	in various domains
0.0474984557	utilized by
0.0474895505	novel concept of
0.0474776788	a novel statistical
0.0474747053	required at
0.0474713506	experimentation with
0.0474638197	this paper includes
0.0474588394	also addressed
0.0474577950	improved if
0.0474556572	to give
0.0474523506	to relay
0.0474379566	a simple example
0.0474309585	with different degrees
0.0474298111	by linking
0.0474253575	expense of
0.0474118061	the use of formal
0.0474054521	a method for estimating
0.0474035556	suite of
0.0473976681	to get better
0.0473964317	a tedious
0.0473834705	a considerable amount of
0.0473707971	the algorithm with
0.0473695685	process consists of
0.0473658977	allowed by
0.0473600759	outcome of
0.0473500490	a new model for
0.0473452074	the transmitter and receiver
0.0473422007	a useful tool for
0.0473385051	then analyzed
0.0473352485	well known as
0.0473346761	a number of important
0.0473333295	with very low
0.0473320333	seek to
0.0473297993	started with
0.0473270490	a compressed
0.0473176751	decreases with
0.0472986723	not received
0.0472984260	most important problems
0.0472681892	evaluate whether
0.0472648201	popular due to
0.0472557669	begins to
0.0472380093	programmed to
0.0472360033	one type of
0.0472244711	a bridge between
0.0472193060	approach to deal with
0.0472174961	a numerical
0.0472146159	to register
0.0472006731	performed in order to
0.0471801297	most robust
0.0471635709	to probe
0.0471573840	an increasing interest
0.0471411502	projects such as
0.0471399195	a simulator
0.0471379800	often fail to
0.0471377531	made use of
0.0471153341	employed for
0.0471113383	the form
0.0471052689	a solution based
0.0471048757	the validation of
0.0471039086	to push
0.0470951677	however despite
0.0470847802	conducted at
0.0470754303	in various ways
0.0470736035	tried to
0.0470698292	a technique for
0.0470545855	a reinforcement
0.0470463979	change over
0.0470245492	the object to
0.0470243589	reflect on
0.0470179987	also observed
0.0470049218	to divide
0.0469946608	of size at most
0.0469903402	not easily
0.0469891096	several kinds of
0.0469836951	able to effectively
0.0469735693	this paper puts
0.0469729376	most accurate
0.0469637578	a compromise
0.0469517438	the realization
0.0469445669	for creating
0.0469366335	an accessible
0.0469345964	not possible to
0.0469230559	a hierarchy
0.0469143995	the description of
0.0469065707	a survey on
0.0469017564	perform well in
0.0468991991	used for image
0.0468964317	a surprising
0.0468958408	though many
0.0468830805	of different sizes
0.0468807858	induced from
0.0468785127	also incorporates
0.0468769755	promising approach for
0.0468721267	both indoor
0.0468694813	increased from
0.0468591849	a valuable
0.0468309585	require only
0.0467987749	some numerical
0.0467985615	the particular case of
0.0467971294	the network from
0.0467868027	linked with
0.0467791178	than existing
0.0467790057	stated in
0.0467755972	a formalism
0.0467697125	the curse
0.0467689759	estimated at
0.0467575795	a machine
0.0467547025	described in terms of
0.0467308183	accuracy and efficiency of
0.0467214092	becomes very
0.0467117727	good performance in terms of
0.0467116756	two versions of
0.0466996051	validated with
0.0466846728	the ability to identify
0.0466830424	a long
0.0466819152	permits to
0.0466804602	arises as
0.0466795265	to store and
0.0466789392	new insight
0.0466759383	research aims to
0.0466736393	organized in
0.0466546497	important role for
0.0466429020	possible to reduce
0.0466391023	this work extends
0.0466144856	displayed in
0.0466120604	this study focuses on
0.0466077846	both single and
0.0466047930	our results indicate
0.0465860904	challenging task due to
0.0465738300	then discussed
0.0465479788	to impose
0.0465322597	most practical
0.0465302349	efficiency and scalability of
0.0465246712	a similarity
0.0465210634	most cases
0.0465171940	shown by
0.0465155431	proposed to find
0.0465114993	new feature
0.0465004005	discussed as well
0.0464988448	not addressed
0.0464927257	exact value
0.0464893671	the same complexity
0.0464874209	an indicator of
0.0464830284	for identifying
0.0464810824	detected from
0.0464795228	also applicable
0.0464571666	some general
0.0464493112	algorithms do not
0.0464443181	various conditions
0.0464435923	some theoretical
0.0464320694	some specific
0.0464247453	by carrying
0.0464240572	practical example
0.0464080621	an annotated
0.0464011420	based on analysis of
0.0463984429	the change in
0.0463944863	in terms of precision
0.0463920693	the achievement of
0.0463812343	the task at hand
0.0463785127	also incorporate
0.0463704058	some form of
0.0463553748	the upper bound of
0.0463427135	the network with
0.0463383574	the generalization performance
0.0463294198	used in combination with
0.0463288632	deployed as
0.0463272656	an optimal set of
0.0463267806	possible to
0.0463003553	by means of simulation
0.0462967446	important task for
0.0462933252	the velocity of
0.0462869180	realized with
0.0462777589	our conclusion
0.0462741312	covered in
0.0462717877	investigate if
0.0462671484	the deficiency
0.0462671484	the decidability
0.0462555858	the future of
0.0462509736	outlined in
0.0462471894	an embedded system
0.0462450090	a huge amount of
0.0462297852	a special focus
0.0462277828	a majority of
0.0462205628	typically used in
0.0462199597	task because of
0.0462164285	to advance
0.0462127362	processing time of
0.0462115886	attempt at
0.0462093757	research and development of
0.0461778572	the use of information
0.0461768317	heavily on
0.0461752271	this direction
0.0461628362	important step in
0.0461541969	speed and accuracy of
0.0461493141	this report
0.0461485349	most previous
0.0461484156	also identified
0.0461432568	studied through
0.0461416788	number of edges in
0.0461413600	no existing
0.0461336550	combination with
0.0461329986	exploited to
0.0461263182	system to support
0.0461196467	the main advantages of
0.0461138496	challenge for
0.0461136920	a least
0.0461052913	by quantifying
0.0461052134	with little or
0.0461048757	the treatment of
0.0460851387	any knowledge of
0.0460845641	a set of tools
0.0460788931	difficulty of
0.0460750238	to air
0.0460666074	a set of constraints
0.0460310550	a discussion
0.0460305308	the severity of
0.0460285686	developed during
0.0460252888	popularity as
0.0460232409	formalism for
0.0460199314	specific set of
0.0460135713	scenarios such as
0.0460126104	a much smaller
0.0460124453	looking for
0.0460079957	use of ontologies
0.0459935948	the development of web
0.0459891178	a conjecture
0.0459864187	also reported
0.0459791487	two examples
0.0459740079	wait for
0.0459712747	also report
0.0459661950	an svm
0.0459607273	work shows
0.0459570782	exponentially with
0.0459405226	to emphasize
0.0459399659	provides better
0.0459344830	executed in
0.0459152782	the system behavior
0.0459052547	any software
0.0459051703	also facilitates
0.0459003516	also conducted
0.0458976116	two questions
0.0458923805	approach in terms of
0.0458832015	effective solution for
0.0458733501	two ways
0.0458692284	a blind
0.0458666190	a novel graph
0.0458654790	also introduced
0.0458651036	a unified framework for
0.0458587393	or indirectly
0.0458524029	difficulty in
0.0458457718	made during
0.0458426050	these two techniques
0.0458339818	response time of
0.0458208997	as possible while
0.0458201445	yet effective
0.0458073243	some degree
0.0458069105	a bayesian approach to
0.0458038230	opportunity for
0.0457868027	aiming to
0.0457697819	an alternative to
0.0457621537	often necessary
0.0457617452	the correlation of
0.0457501064	contrast to other
0.0457492218	algorithm referred to as
0.0457412756	a complex system
0.0457353454	approaches do not
0.0457306888	information system for
0.0457306112	methods used in
0.0457296654	some fixed
0.0457139191	the same as
0.0457038267	obtained without
0.0456966651	the tradeoff between
0.0456948118	an attractive alternative to
0.0456901745	more focused
0.0456772464	process by using
0.0456626710	most likely to
0.0456579014	need to make
0.0456570069	also analyzed
0.0456563183	consider here
0.0456487158	trained from
0.0456480200	to interconnect
0.0456459304	the usefulness
0.0456399041	the ratio between
0.0456316330	new idea
0.0456287083	effective means of
0.0456196178	root cause of
0.0456150289	summarized in
0.0456136916	this trend
0.0456009693	a neighborhood
0.0455936458	very different
0.0455881661	limited due to
0.0455868729	implemented through
0.0455838848	a member
0.0455817327	in two stages
0.0455594157	a certain level
0.0455579324	two different methods
0.0455450877	an assumption
0.0455378674	the history of
0.0455368810	the same image
0.0455299145	shift from
0.0455188454	for measuring
0.0455138387	procedures such as
0.0455045473	the new concept
0.0454986046	also confirmed
0.0454974020	applications in particular
0.0454973387	the best possible
0.0454921786	stored on
0.0454839168	to reverse
0.0454761953	to engineer
0.0454758159	an informed
0.0454701816	for finding
0.0454676511	to think
0.0454601506	then derived
0.0454557395	a lower bound of
0.0454368960	some existing
0.0454127944	the advantage
0.0454075666	transformed by
0.0454031625	a solution for
0.0453978724	such kind
0.0453975874	a number of approaches
0.0453937110	but also reduces
0.0453929452	not admit
0.0453672708	then applied
0.0453640987	the ability to perform
0.0453449392	implemented at
0.0453421379	restricted by
0.0453282738	many scenarios
0.0453240261	model used in
0.0453229936	a priority
0.0453189040	the robot system
0.0453158551	many areas
0.0453145110	a conditional
0.0453130088	ordered by
0.0453122168	for overcoming
0.0453099417	a tradeoff
0.0452954824	recommended for
0.0452950347	information in order to
0.0452798235	a complementary
0.0452793182	propose here
0.0452784066	a threshold value
0.0452766709	a system architecture
0.0452673765	a promising way
0.0452671068	benefits in terms of
0.0452644997	a general approach to
0.0452628938	well known for
0.0452557835	necessity of
0.0452485884	any given time
0.0452472320	reasonable amount of
0.0452421491	also reveals
0.0452395513	by transmitting
0.0452227149	models used in
0.0452126105	both normal
0.0452050709	an established
0.0452001824	major problem in
0.0452000160	matched with
0.0451929825	very specific
0.0451867135	the most important problems
0.0451764304	the superior performance of
0.0451754515	of practical interest
0.0451545907	obtained results show
0.0451510144	not restricted to
0.0451440606	than previously
0.0451383447	a narrow
0.0451368482	for building
0.0451363368	attention due to
0.0451193367	a novel technique for
0.0451184438	processes such as
0.0451182546	the multitude of
0.0451170857	an approximated
0.0451150303	matched by
0.0451140579	a platform for
0.0451012651	indispensable for
0.0451007292	the same framework
0.0450996437	tested on several
0.0450842818	a supervised
0.0450698292	a notion of
0.0450675442	lie in
0.0450669007	a set of benchmark
0.0450662646	in various fields
0.0450636760	even under
0.0450586201	the same network
0.0450464303	algorithm does not
0.0450457842	more promising
0.0450325133	the major contribution
0.0450231799	difficult because of
0.0450123419	now possible
0.0449965902	effective than
0.0449928896	conducted over
0.0449906984	aim to
0.0449882066	a high computational
0.0449782585	to summarize
0.0449779981	a variety
0.0449648009	conditions such as
0.0449625144	a mature
0.0449621107	for achieving
0.0449620185	the case for
0.0449557152	off between
0.0449555621	back into
0.0449553976	use of web
0.0449542558	more significant
0.0449431917	does not consider
0.0449334232	essential part of
0.0449262455	work on
0.0449212987	method in terms of
0.0449170273	for annotating
0.0449157452	then extended
0.0449143622	the adequacy
0.0449125144	for automating
0.0449067119	guaranteed by
0.0448755725	a dynamical
0.0448681513	the new generation
0.0448679678	important application of
0.0448667120	least k
0.0448659625	made to
0.0448628543	by specifying
0.0448429266	users need to
0.0448386119	a number of techniques
0.0448346785	the deformation of
0.0448274380	many aspects
0.0448211862	evaluated with
0.0448116804	approaches namely
0.0448114219	a new challenge
0.0448052962	a collection
0.0447930887	assist in
0.0447874786	for inferring
0.0447862841	an 8
0.0447735528	the introduction
0.0447633602	the broadcast nature
0.0447559069	not generally
0.0447535959	allows for
0.0447499709	practical way
0.0447318745	possible to perform
0.0447226306	the quantitative analysis
0.0447213603	make sense of
0.0447201816	a limited
0.0447145506	used for generating
0.0447105513	in comparison with existing
0.0447075743	the existence and uniqueness
0.0447029820	assists in
0.0447012683	easier for
0.0447012295	sufficient to
0.0446939002	a designer
0.0446882324	a prerequisite for
0.0446841240	order to create
0.0446814363	the user in
0.0446730471	to face
0.0446712648	previous work in
0.0446606559	in various areas
0.0446586478	adapted from
0.0446411378	a myriad of
0.0446387930	used to understand
0.0446216824	while considering
0.0446213689	combined with other
0.0446175425	optimal in terms of
0.0446169151	a system in
0.0446122949	explanation for
0.0446056751	measured from
0.0445775300	a method to reduce
0.0445721250	the overall accuracy
0.0445579324	used to process
0.0445435280	the distributed nature
0.0445411899	used in combination
0.0445315169	an adaptation of
0.0445182830	no general
0.0445142959	other published
0.0445137214	certain aspects of
0.0445131334	a certain amount
0.0445099839	this paper utilizes
0.0445057669	favorably to
0.0444953015	detection system for
0.0444940427	theoretical model for
0.0444916912	work proposes
0.0444908337	struggle to
0.0444903402	also demonstrated
0.0444696990	achievement of
0.0444653390	more popular
0.0444487504	modeled with
0.0444467176	then used to
0.0444446404	the current best
0.0444390137	in terms of computational
0.0444322061	easy to implement and
0.0444290554	become very
0.0444200975	to agree
0.0444184951	an ill
0.0444176288	an identical
0.0444063289	chosen from
0.0444036596	the two groups
0.0443978950	a pervasive
0.0443973730	most discriminative
0.0443938622	very useful for
0.0443900033	to compromise
0.0443891953	several levels
0.0443880385	the image with
0.0443880385	the image to
0.0443658190	a node to
0.0443640636	successfully used for
0.0443575924	different subsets of
0.0443525536	algorithms used in
0.0443294187	explored in
0.0443253483	often difficult to
0.0443197340	able to take
0.0443158551	several areas
0.0443103284	conducted with
0.0443052441	examples show
0.0442933252	the concentration of
0.0442883923	system achieves
0.0442876390	more than two
0.0442860996	than just
0.0442766709	a good quality
0.0442750063	to react to
0.0442741461	in spite
0.0442673704	very useful in
0.0442179937	merit of
0.0442024602	products such as
0.0441748922	a subclass of
0.0441747476	efficient way to
0.0441672132	difficult problem in
0.0441553361	the new algorithms
0.0441550084	an experienced
0.0441467295	used to handle
0.0441432696	to mask
0.0441342997	much more than
0.0441334705	some kind of
0.0441240406	a case study in
0.0441223929	possible solution
0.0441169745	above problems
0.0441123395	produced from
0.0441085296	more recent
0.0441016964	strategies such as
0.0440957568	for verifying
0.0440917372	to route
0.0440664246	a homogeneous
0.0440655319	the first and second
0.0440586201	the same information
0.0440578999	comes with
0.0440496870	to behave
0.0440481841	taken by
0.0440462883	for segmentation of
0.0440458931	very suitable for
0.0440427232	complex nature of
0.0440377509	a novel mechanism
0.0440309003	the goodness
0.0440307312	work focuses on
0.0440270730	problem in computer
0.0440188454	for selecting
0.0440176658	able to model
0.0440155144	to label
0.0439998289	very critical
0.0439844166	the interplay of
0.0439784466	the widespread
0.0439483190	to affect
0.0439444131	a fast and robust
0.0439434365	network in order to
0.0439395129	model in terms of
0.0439350893	used to ensure
0.0439182983	process in particular
0.0439091439	to ground
0.0439082664	a representative set of
0.0439031625	a description of
0.0439028492	a formal definition of
0.0438933195	a method to improve
0.0438911378	the vast amount of
0.0438686028	the target system
0.0438622054	a very efficient
0.0438555506	made by
0.0438522292	exploited in
0.0438508942	the key to
0.0438473392	analysed by
0.0438427962	a vision
0.0438373563	various levels of
0.0438366979	same task
0.0438124711	in terms of efficiency
0.0438085440	more detail
0.0437927204	constructed by using
0.0437878159	complexity compared to
0.0437776299	to sign
0.0437772656	the primary goal of
0.0437754412	techniques used for
0.0437711408	for quantifying
0.0437647614	captured with
0.0437613926	the main novelty of
0.0437582022	main part
0.0437487047	by suggesting
0.0437417530	databases such as
0.0437402664	formulated by
0.0437345369	a sharp
0.0437260006	to belong
0.0437177545	of n points
0.0437091404	a class of discrete
0.0436962695	those found
0.0436930277	not previously
0.0436714979	a given input
0.0436702619	a spatio
0.0436587285	key idea of
0.0436547037	better overall
0.0436456424	to constitute
0.0436406135	also studied
0.0436394175	to other domains
0.0436144719	in terms of area
0.0435966657	on real and synthetic
0.0435939681	in contrast to existing
0.0435843655	further demonstrate
0.0435825636	to elaborate
0.0435789964	the essence
0.0435707037	overall quality of
0.0435652013	in many scenarios
0.0435589842	execution time of
0.0435509323	in terms of delay
0.0435479919	impossibility of
0.0435385986	both physical
0.0435290294	use of existing
0.0435282980	encoded in
0.0435273139	certain amount of
0.0435081036	for displaying
0.0434959212	a number
0.0434775536	method by using
0.0434754977	efficient method to
0.0434689898	intended as
0.0434663001	the need to
0.0434637569	further improved by
0.0434631221	start by
0.0434594048	to partition
0.0434517771	requirements such as
0.0434467656	in terms of energy
0.0434456114	both technical
0.0434382090	the extension of
0.0434311780	provide better
0.0434146629	state information at
0.0434135604	able to do
0.0434073617	both synthetic
0.0433982507	in different ways
0.0433942196	uncertainty associated
0.0433632911	for analyzing
0.0433532163	an arbitrarily
0.0433496684	implemented by using
0.0433443166	then constructed
0.0433414721	this paper seeks to
0.0433238301	presented as
0.0433208222	in terms of computation
0.0433133680	problem in order to
0.0433113161	no polynomial
0.0433068167	a variant
0.0432971742	time algorithm for
0.0432957046	better than existing
0.0432877448	examined by
0.0432822488	follow from
0.0432764999	in different situations
0.0432709945	the proportion
0.0432527457	the hybrid system
0.0432408190	the type system
0.0432405751	novel combination
0.0432395266	checked for
0.0432288736	do not rely on
0.0432243036	a whole
0.0432129119	acquired with
0.0432092918	technique used in
0.0431966945	by connecting
0.0431948145	some key
0.0431902457	the software system
0.0431627403	proposed algorithm provides
0.0431610333	number of people
0.0431525973	the presence or absence of
0.0431510144	without loss of
0.0431481984	model in order to
0.0431441408	in terms of bit error
0.0431389270	currently under
0.0431358816	to fail
0.0431188383	an examination
0.0431042495	the thickness of
0.0431023562	a minimum number of
0.0430987857	the first scheme
0.0430929483	a prime
0.0430790831	to argue
0.0430752065	works well for
0.0430653620	robust than
0.0430638615	suffice to
0.0430631007	to return
0.0430628589	the number of test
0.0430578044	give examples of
0.0430433828	the primary goal
0.0430339883	a simple yet
0.0430294099	a new technology
0.0430245492	a power system
0.0430152507	time per
0.0430097950	the same amount
0.0430073364	a sound and complete
0.0429998076	same cluster
0.0429981817	required in order to
0.0429933388	a foreign
0.0429915822	the data obtained
0.0429870419	a view to
0.0429828579	a significant effect on
0.0429820354	a post
0.0429707860	for assisting
0.0429649341	reason for
0.0429563179	a fast and efficient
0.0429554886	an initial set of
0.0429432932	in terms of robustness
0.0429366450	expect to
0.0429201512	the notion
0.0429040184	commonly used for
0.0429005577	more and more difficult
0.0428981643	in time and frequency
0.0428948994	models do not
0.0428933195	a method to estimate
0.0428920751	the rate of convergence
0.0428911378	different variants of
0.0428901659	the first few
0.0428815937	necessary condition for
0.0428791672	used for modeling
0.0428711032	this study aims to
0.0428672192	in other domains
0.0428643884	a connection
0.0428634927	our algorithm uses
0.0428633936	running time of
0.0428627405	a support vector
0.0428435285	a distinctive
0.0428373433	also examines
0.0428310419	problems due to
0.0428220121	a correspondence
0.0428098134	the expected value of
0.0428012037	to believe
0.0427999863	a measurement
0.0427934798	the design and development
0.0427893517	recent work in
0.0427755437	not fit
0.0427745126	an appropriately
0.0427628469	developed at
0.0427609398	capabilities such as
0.0427605649	a specialized
0.0427540570	a practical point
0.0427332653	a set of n
0.0427175095	an invariant
0.0427095852	for recovering
0.0427065015	thus significantly
0.0426916824	on synthetic and real
0.0426783601	proposed in order to
0.0426757898	in different contexts
0.0426745221	the following results
0.0426660980	a laboratory
0.0426586682	failing to
0.0426563465	practical method for
0.0426469886	a peer to
0.0426457842	adjusted to
0.0426402591	algorithms in particular
0.0426371510	new way of
0.0426283680	environment in order to
0.0426275126	major issue in
0.0426256485	a vast
0.0426159724	amount of work
0.0426092487	computation time of
0.0426066756	the semantics of
0.0426066046	also provides
0.0426050067	used to search for
0.0425986288	important part in
0.0425851387	no knowledge of
0.0425720008	more often
0.0425636193	the distance of
0.0425634106	to amplify
0.0425496171	described in
0.0425460967	applied in many
0.0425368960	also prove
0.0425232119	for developing
0.0425187201	the curse of
0.0425140788	a tremendous
0.0425084503	argues for
0.0424870724	many applications such as
0.0424701768	any value
0.0424645691	the same model
0.0424587083	a dataset
0.0424526700	new types of
0.0424495677	to walk
0.0424467656	the development of efficient
0.0424347228	used as features
0.0424301251	still very
0.0424168226	by many researchers
0.0424020896	a rapid
0.0423908693	mean square error of
0.0423907919	challenging because of
0.0423904286	a new learning
0.0423880385	the method with
0.0423798341	a broad class
0.0423723159	the complete set
0.0423654877	all major
0.0423642209	the system includes
0.0423630841	more complex than
0.0423629045	and then present
0.0423605990	to provide users with
0.0423587563	the power system
0.0423496317	to discuss
0.0423468423	different purposes
0.0423416537	the superiority
0.0423365724	environment such as
0.0423335996	does not make
0.0423296891	presented in order to
0.0423256060	use of information
0.0423217186	not affect
0.0423196587	a given number
0.0423172708	some simple
0.0423154388	various applications
0.0423103284	connected with
0.0423067848	model by using
0.0423065786	to cater for
0.0422952208	to plan
0.0422918656	the first application
0.0422742918	approach by using
0.0422663236	the least
0.0422344971	the best available
0.0422186882	new family of
0.0422172348	an almost
0.0422123703	this work shows
0.0421966945	an inherently
0.0421884361	novel face
0.0421814542	to detect changes
0.0421674063	the fuzzy system
0.0421674063	the distributed system
0.0421659521	the motivation
0.0421586933	the research presented
0.0421530853	two popular
0.0421484156	also evaluated
0.0421368432	on system performance
0.0421266363	system prototype
0.0421118959	research and development in
0.0421098886	for classification of
0.0421081610	moreover if
0.0420839625	to cluster
0.0420839625	to secure
0.0420813300	method does
0.0420777962	a basis
0.0420635984	the burden
0.0420550558	the system at
0.0420322145	an active area
0.0420245492	the cost for
0.0420035503	certain aspects
0.0420009020	made about
0.0419994221	the first work
0.0419979827	developed in order to
0.0419848610	presented as well
0.0419835553	calls for
0.0419801111	to cut
0.0419738516	a standardized
0.0419695162	the protein data
0.0419653924	a particular application
0.0419523687	interest in
0.0419439535	to score
0.0419288605	to converge to
0.0419253648	the first three
0.0419174988	the generalization performance of
0.0419163933	the spatial resolution of
0.0419112798	in such situations
0.0419089949	as indicated by
0.0418836859	to moderate
0.0418744785	optimal value of
0.0418631638	useful way
0.0418627788	to consider
0.0418543466	more widely
0.0418522292	realized in
0.0418481041	in time and space
0.0418475954	to deal
0.0418458814	large enough to
0.0418367894	an arbitrary set of
0.0418291253	no less than
0.0418259092	an arbitrary set
0.0418173283	both simulation and
0.0418148776	an accuracy
0.0418126990	a generalisation of
0.0418078124	used to address
0.0417981748	only if
0.0417969977	a very small
0.0417884128	the different methods
0.0417803275	simple to implement and
0.0417785355	about whether
0.0417612696	for handling
0.0417526950	the observation of
0.0417514733	system exhibits
0.0417442492	the fitness of
0.0417414252	both functional
0.0417411883	the functionality
0.0417407794	works on
0.0417377696	the period of
0.0417268285	not only does
0.0417267958	to count
0.0417256709	the high computational
0.0417243636	a significant improvement over
0.0417196270	considered in order to
0.0417139989	by means of simulations
0.0417119095	to sort
0.0417111294	experiments on two
0.0417100156	estimation me
0.0417046826	all known
0.0416972111	best set of
0.0416953433	taken into
0.0416756781	the diameter of
0.0416689519	a view
0.0416619495	new insight into
0.0416612700	the algorithm by
0.0416538800	all previous
0.0416430778	this gap by
0.0416306675	the whole set
0.0416210654	a working prototype
0.0416115006	different variants
0.0416085749	the corresponding results
0.0416064980	the work presented here
0.0415948312	simple method for
0.0415898232	the appropriateness of
0.0415851206	a best
0.0415683683	3d model of
0.0415644997	a common set of
0.0415644997	a unified approach to
0.0415577327	both theoretically and
0.0415516324	possible to identify
0.0415425929	for storing
0.0415411123	the nature
0.0415378674	the status of
0.0415149099	for illustration
0.0415045265	for obtaining
0.0415035953	a stand
0.0414961338	approach allows for
0.0414954898	an asymptotically
0.0414946499	possible to construct
0.0414906403	to complement
0.0414762553	a recommender system
0.0414701048	lot of
0.0414634251	our approach relies on
0.0414605073	a deeper
0.0414544957	a set of test
0.0414423675	both single
0.0414357853	for assessing
0.0414277108	a complete characterization of
0.0414196803	no knowledge
0.0414151106	a reduced
0.0414137664	to feel
0.0414130841	more general than
0.0414051717	most current
0.0414050096	a procedure
0.0413991555	used in many
0.0413960397	a wealth of
0.0413841327	the opportunity to
0.0413822868	then automatically
0.0413762583	for expressing
0.0413748225	systems in particular
0.0413605990	a random sample of
0.0413490580	the object in
0.0413479448	an emphasis
0.0413385819	stay in
0.0413367521	currently not
0.0413327225	the same way
0.0413311408	to work in
0.0413257619	combination of two
0.0413208222	in terms of speed
0.0413203845	an important aspect of
0.0413105555	for reconstructing
0.0413030425	and practicality of
0.0412821648	perform as well
0.0412756587	devised for
0.0412732210	and more generally
0.0412636251	to scale
0.0412592006	same number
0.0412560581	the input and output
0.0412540229	useful information from
0.0412527457	a user to
0.0412527457	the group of
0.0412471850	a recommender
0.0412360030	played on
0.0412224729	not considered
0.0412191997	the system achieves
0.0412164256	a very low
0.0412086112	for retrieving
0.0412065990	for calculating
0.0411983514	promising way to
0.0411698416	for delivering
0.0411499649	necessary to use
0.0411426603	goes to
0.0411349655	a relatively large
0.0411304041	for realizing
0.0411264795	yet fully
0.0411263449	performs as well as
0.0411209112	searches for
0.0411193367	a modification of
0.0411190387	systems need to
0.0411158136	a tradeoff between
0.0411044248	easy to use and
0.0410946896	the system provides
0.0410893671	a new measure
0.0410830520	the area under
0.0410791900	applications for example
0.0410768247	the recent development
0.0410521795	a priori knowledge of
0.0410517092	in two different ways
0.0410496092	a tight
0.0410451060	a relatively small number of
0.0410429185	to possess
0.0410422408	new class of
0.0410379320	another approach
0.0410378674	the exploitation of
0.0410296607	no need
0.0410238666	to pass
0.0410225943	the capability to
0.0410086690	system to perform
0.0409921908	a network with
0.0409719538	used to avoid
0.0409688748	also derived
0.0409673704	does not need to
0.0409641536	our method uses
0.0409628589	the performance of multi
0.0409622546	the connection between
0.0409594048	to hold
0.0409568603	this claim
0.0409425496	give better
0.0409335046	a new classification
0.0409296094	development of novel
0.0409273914	at most two
0.0409160628	requires very
0.0409143977	system for mobile
0.0409026277	leads to more
0.0408956012	some unique
0.0408940216	aimed to
0.0408747785	for composing
0.0408693901	possible to achieve
0.0408667194	a large range
0.0408653883	networks in particular
0.0408580616	concern for
0.0408567165	a promising candidate for
0.0408500416	a corpus
0.0408423743	cost in terms of
0.0408359741	to figure
0.0408322466	no other
0.0408234308	the local and global
0.0408121465	necessary to
0.0408077693	the lower bound of
0.0407895888	to influence
0.0407823830	however few
0.0407725995	exploited for
0.0407721073	a robust and efficient
0.0407715427	the angle of
0.0407669623	an estimation
0.0407443407	a region of interest
0.0407354992	every time
0.0407297949	of interest in
0.0407172559	effective way to
0.0407097000	method to deal with
0.0407073344	the overall approach
0.0406954559	a particular focus
0.0406896669	analysed in
0.0406890495	task due to
0.0406800918	the broadcast nature of
0.0406646870	the ability to detect
0.0406640745	to expect
0.0406619495	most commonly used
0.0406599705	simple way to
0.0406593384	new opportunities for
0.0406581045	the complete set of
0.0406534234	also applies
0.0406348106	a novel parallel
0.0406314767	explained in
0.0406071493	helps to
0.0406057926	does not introduce
0.0405994414	consists of several
0.0405880620	decide whether to
0.0405768237	found through
0.0405626990	in order to take
0.0405598197	a novel solution
0.0405581439	challenge due to
0.0405551109	a fuzzy system
0.0405306823	essential part
0.0405258878	this work demonstrates
0.0404777977	systems described by
0.0404732453	various stages of
0.0404616322	a line of
0.0404616322	the university of
0.0404554527	promise for
0.0404500490	a new set of
0.0404486741	to assume
0.0404472604	much like
0.0404363644	for aggregating
0.0404343713	development of computer
0.0404266236	by looking
0.0404172176	researches on
0.0404125144	for validating
0.0404112395	efficiency and effectiveness of
0.0404078265	by limiting
0.0403903744	by referring
0.0403788500	the hardware and software
0.0403745899	such as business
0.0403632101	to lie
0.0403460572	mainly used
0.0403388220	a major source of
0.0403179575	a possibility
0.0403107273	work presents
0.0403071178	conducted in order to
0.0403030425	various classes of
0.0402992513	the high dimensionality of
0.0402941061	the overall performance
0.0402922007	due to lack of
0.0402919327	to find solutions
0.0402683984	approach does not
0.0402596000	to reason
0.0402574445	efficiency and accuracy of
0.0402569949	proposed to make
0.0402525517	possible applications
0.0402482105	a specific type
0.0402476032	not currently
0.0402442937	not widely
0.0402351748	the running time of
0.0402275367	in different languages
0.0402124567	an outline
0.0402071559	often used to
0.0401837238	with emphasis on
0.0401835320	invited to
0.0401766229	computer simulations show
0.0401678543	started to
0.0401664271	a great impact on
0.0401635730	a set of techniques
0.0401617283	to review
0.0401593231	a criterion for
0.0401553361	the new methods
0.0401523345	useful information about
0.0401510144	other kinds of
0.0401447081	the chromatic number of
0.0401436373	a set of training
0.0401414379	suggested as
0.0401411378	often referred to as
0.0401375147	to work
0.0401373203	a synthetic
0.0401335882	a new class
0.0401331401	well known in
0.0401318949	the total amount of
0.0401232929	a couple
0.0401175489	to counter
0.0401123131	a moderate
0.0401098886	the internet as
0.0401070906	possible to provide
0.0401044036	innovative approach to
0.0400628369	limitations such as
0.0400565786	a brief review of
0.0400529001	but less
0.0400446508	the following questions
0.0400421415	evaluated by using
0.0400371169	described as
0.0400305536	achieve full
0.0400188454	for extracting
0.0400139423	due to noise
0.0400027226	connection with
0.0399955481	not affected by
0.0399895505	a growing need for
0.0399845518	to look
0.0399790229	used to get
0.0399744711	those obtained using
0.0399621126	the target in
0.0399564195	the applicability
0.0399549831	the most used
0.0399453507	necessary and sufficient condition for
0.0399390164	in terms of packet
0.0399385895	the field of information
0.0399288577	a generalization
0.0399088350	a relatively low
0.0398907452	some critical
0.0398903813	this year
0.0398728832	more and more complex
0.0398727303	previous work by
0.0398725499	some promising
0.0398711050	new model of
0.0398648045	the reader to
0.0398624587	even better than
0.0398616128	information associated with
0.0398508942	a new method of
0.0398486562	performs well in
0.0398399517	the right time
0.0398355670	the high level of
0.0398288278	a novel classification
0.0398097407	to spread
0.0398067165	this paper intends to
0.0397924832	a new trend
0.0397855649	particularly well
0.0397801571	prior to
0.0397536746	to screen
0.0397466547	a viable alternative to
0.0397462563	suitable for use
0.0397454676	particular class
0.0397437815	a description
0.0397347189	a measure
0.0397270730	agent system for
0.0397135819	generality of
0.0397058359	the advent
0.0397053992	developed under
0.0396756781	the number of nodes in
0.0396756781	the design and analysis of
0.0396726720	tackled in
0.0396684216	a picture
0.0396559695	the dynamic model of
0.0396383447	a hot
0.0396267563	the demand for
0.0395917759	to evaluate whether
0.0395886117	then extracted
0.0395872531	the early stage of
0.0395792914	for synthesizing
0.0395703237	practical point of
0.0395687035	full set of
0.0395475625	a manner
0.0395457981	the process in
0.0395201301	the accuracy and efficiency of
0.0395197819	as measured by
0.0395095127	no need for
0.0395067131	to conform
0.0394902463	impact of various
0.0394843528	most advanced
0.0394843477	very similar to
0.0394625144	for resolving
0.0394481090	a timely
0.0394467014	space in order to
0.0394432036	the classification accuracy of
0.0394376868	also serve
0.0394313698	a good agreement
0.0394234002	task since
0.0394232836	the presentation of
0.0394150357	the design and evaluation of
0.0394116575	a set of parameters
0.0394076246	a trade
0.0394069955	the state space of
0.0393878654	this work aims
0.0393808951	placed in
0.0393752663	to shed light on
0.0393659705	to correct
0.0393658190	the cycle time
0.0393568335	a relatively small
0.0393483658	approach to find
0.0393466334	a preprocessing
0.0393367157	new framework
0.0393365194	added value of
0.0393272323	and more importantly
0.0393237560	then combined
0.0393120604	an important component of
0.0392965260	to suggest
0.0392853121	in terms of power
0.0392743622	a given problem
0.0392735867	available bandwidth in
0.0392665257	consumed in
0.0392610442	this research aims to
0.0392273981	the classification performance of
0.0392225995	adapted for
0.0392217585	the last part of
0.0392080522	in terms of performance
0.0392060661	a way of
0.0391812664	the user with
0.0391714943	a practical approach to
0.0391623764	to shed
0.0391438418	efficiency than
0.0391323934	our experiments
0.0391278706	but little
0.0391230989	problems in particular
0.0391188200	both artificial
0.0391159702	communication system for
0.0391125125	not suitable
0.0390918153	in terms of quality
0.0390872271	paper provides
0.0390810406	the available resources
0.0390802613	various combinations
0.0390775767	proposed method over
0.0390698622	checker for
0.0390605990	the main source of
0.0390584231	drawing from
0.0390368048	sake of
0.0390320158	also indicated
0.0390230820	to seek
0.0390194764	performs better in
0.0390131442	to wait for
0.0390003492	than simply
0.0389972668	a procedure for
0.0389931955	a very popular
0.0389853941	for research and practice
0.0389800487	according to user
0.0389638836	in terms of memory
0.0389508942	a characterization of
0.0389370200	best way
0.0389291251	some other
0.0389288605	different classes of
0.0389101128	proposes to use
0.0389083013	the threshold value
0.0389075953	system to detect
0.0389010722	a new software
0.0388946608	the overall goal of
0.0388911378	to take full advantage of
0.0388835977	a limited amount
0.0388790976	synthesized with
0.0388779139	most important features
0.0388748812	more specific
0.0388653491	an immediate
0.0388571942	for reasoning about
0.0388560131	this type
0.0388401592	new ones
0.0388365083	a drawback
0.0388318707	the two sets
0.0388284301	yields good
0.0388140915	the nonlinear system
0.0388030425	a reasonable time
0.0387988267	the throughput performance of
0.0387857307	evaluated according to
0.0387698787	the system development
0.0387484560	method used in
0.0387466233	an expensive
0.0387457568	the sustainability of
0.0387455869	the processing time of
0.0387449704	to sense
0.0387438309	the probability distribution of
0.0387395260	a divide
0.0387264514	room for
0.0387251563	in many scientific
0.0387136038	possible combinations of
0.0387127186	proposed approach uses
0.0387114089	no information
0.0386973279	two representative
0.0386756781	the distance to
0.0386446866	the key feature
0.0386335882	a new probabilistic
0.0386177545	done through
0.0386079574	correlates of
0.0385977807	the entire system
0.0385959212	a series
0.0385889474	very important role in
0.0385774703	an old
0.0385642999	for representing
0.0385604783	hold for
0.0385575620	the field of computer
0.0385531075	the last three
0.0385530425	as long as possible
0.0385475597	at different levels of
0.0385392962	a product of
0.0385317579	various levels
0.0385313330	able to process
0.0385277293	a specific example
0.0385272656	a sufficient number of
0.0385272656	a specific set of
0.0385242590	to invest in
0.0385229849	even further
0.0385206652	part because
0.0385167067	the source and destination
0.0385110442	this study attempts to
0.0384989710	for studying
0.0384943181	a reduction of
0.0384906112	operate with
0.0384886303	full use of
0.0384804971	for several years
0.0384800514	attention over
0.0384790678	the mutual information between
0.0384790678	the weighted sum of
0.0384700720	a factor
0.0384700309	proposed method allows
0.0384657351	the same results
0.0384644202	computed at
0.0384637753	going from
0.0384621126	the image in
0.0384621126	the game in
0.0384382090	the family of
0.0384382090	the interpretation of
0.0384382090	the collection of
0.0384315696	the level of abstraction
0.0384264546	in several areas
0.0384246970	found within
0.0384218929	the ultimate goal of
0.0384207809	to extract useful
0.0383969063	a set of algorithms
0.0383937110	not only improves
0.0383832174	the conception
0.0383824962	used in industry
0.0383823115	a much lower
0.0383757515	a conceptual framework for
0.0383725499	also verified
0.0383633804	a relatively simple
0.0383523900	a demonstration
0.0383435634	in different areas
0.0383370041	full range of
0.0383319201	of vertices of
0.0383209218	good classification
0.0383113275	a particular type of
0.0382807738	studies show
0.0382787891	even without
0.0382714943	a higher number of
0.0382714943	a low number of
0.0382714395	with time complexity
0.0382693405	the same performance
0.0382688604	an adapted
0.0382542367	some major
0.0382531334	the same number
0.0382387502	an improvement over
0.0382229619	a test of
0.0382209212	a hidden
0.0382063083	an important problem in
0.0381912741	challenges due to
0.0381806479	way to reduce
0.0381725509	of interest for
0.0381582959	move from
0.0381559247	often rely on
0.0381537391	a mix of
0.0381509818	requirements in terms of
0.0381462965	to work well
0.0381428636	left to
0.0381410929	the proposed method uses
0.0381388779	system in addition
0.0381260945	effective technique for
0.0381251802	to remain
0.0381201225	a protocol for
0.0381195770	no effect on
0.0381165544	some open
0.0380949632	the transmission time
0.0380947928	show good performance
0.0380936386	done on
0.0380567165	an essential role in
0.0380504011	an end
0.0380483587	the information system
0.0380471742	the convergence time
0.0380461884	this paper concentrates
0.0380372491	in good agreement with
0.0380242590	the originality of
0.0380139379	best combination of
0.0380001894	better performance than other
0.0379999104	the mean and variance
0.0379992213	particular type of
0.0379992184	such as temperature
0.0379895505	a promising way to
0.0379485433	conducted to
0.0379458473	task because
0.0379381610	a linear function of
0.0379281968	entirely on
0.0379240691	no effect
0.0378757258	a distributed way
0.0378651284	almost all of
0.0378589001	especially suitable for
0.0378345345	extensive use
0.0378071305	by computer simulation
0.0378048386	first attempt
0.0378012456	proposed approach provides
0.0377906099	usually not
0.0377898047	the maximum possible
0.0377847277	come to
0.0377652962	the complex nature
0.0377454145	not seen
0.0377410929	the proposed method provides
0.0377395645	most serious
0.0377332652	the region of interest
0.0377196270	framework in order to
0.0377070199	problem in terms of
0.0377052066	to report
0.0377005452	respectively while
0.0376915049	tested on two
0.0376842456	the number of available
0.0376827725	the same conditions
0.0376692797	an initial set
0.0376686638	a nonlinear system
0.0376526700	a novel application of
0.0376514881	an approximation of
0.0376400116	performed in two
0.0376165004	verified with
0.0375955672	more common
0.0375842205	techniques do not
0.0375804951	our contributions
0.0375728570	still under
0.0375666144	happens in
0.0375661912	an effective tool for
0.0375628149	a variation of
0.0375579127	every other
0.0375557030	in many practical applications
0.0375467607	generic framework for
0.0375451060	a significant part of
0.0375428595	able to make
0.0375178495	developed by using
0.0375178462	for classifying
0.0375139379	as perceived by
0.0375133726	due to limited
0.0375110442	a direct impact on
0.0374906470	all existing
0.0374883892	to place
0.0374877521	a most
0.0374759815	works well in
0.0374566785	specific example
0.0374313130	to degrade
0.0374164034	an analytical expression for
0.0374156742	an o
0.0374156000	to exchange
0.0373907784	a forum for
0.0373871897	some new
0.0373812000	to filter
0.0373658190	the mixture of
0.0373636925	the same value
0.0373593194	the same algorithm
0.0373490580	the database of
0.0373448101	to document
0.0373427043	introduced in order to
0.0373242521	especially under
0.0373201629	a refined
0.0373033030	a much higher
0.0372934749	a fast and accurate
0.0372917593	some useful
0.0372698101	to occur
0.0372603348	some possible
0.0372387612	the other existing
0.0372218139	effective way for
0.0372048819	devised to
0.0371984429	the characterization of
0.0371918747	to narrow
0.0371891454	the vision system
0.0371855121	for controlling
0.0371741902	with other methods
0.0371700854	possible way
0.0371534255	to forward
0.0371522914	designed and implemented in
0.0371439549	to reuse
0.0371420730	information by using
0.0371345600	done in
0.0371334752	the development and evaluation
0.0371286912	an important tool for
0.0371251659	by avoiding
0.0371244690	in many computer vision
0.0371214388	often do not
0.0370927925	improvements in terms of
0.0370903019	such as voice
0.0370667791	different types of data
0.0370632836	the dependence of
0.0370508972	the necessary conditions
0.0370475597	a new paradigm for
0.0370430897	already used
0.0370168531	hard problem in
0.0370123079	a factor of two
0.0370121587	system under
0.0370092327	best use of
0.0370028199	a construction of
0.0370001579	observed from
0.0369835092	the best fit
0.0369652849	with much lower
0.0369646959	a paradigm
0.0369604958	problem due to
0.0369143993	frequently used in
0.0369135062	properties in particular
0.0368915655	although most
0.0368837607	sensors in order to
0.0368649753	the generalization of
0.0368388220	a positive effect on
0.0368369981	several sub
0.0368090027	the special structure
0.0367988267	the method proposed in
0.0367970093	not possible
0.0367926556	employed in order to
0.0367697819	an improvement in
0.0367668593	a new tool
0.0367639019	the slope of
0.0367363729	usually do not
0.0367153197	proposed method provides
0.0367064765	the acceptance of
0.0367004559	the dynamic nature
0.0366694281	for describing
0.0366636997	the case of non
0.0366459833	the temporal evolution of
0.0366382481	an important issue in
0.0366378674	an average of
0.0365991861	less number of
0.0365888817	some research
0.0365778819	a new variant
0.0365570402	the stability analysis of
0.0365514720	to weight
0.0365446429	the static and dynamic
0.0365323957	the system without
0.0365317950	best way to
0.0365261027	challenges such as
0.0365123798	an approximation algorithm for
0.0364979046	the design process of
0.0364972911	thorough analysis of
0.0364899154	investigated by using
0.0364887842	certain level of
0.0364841327	a decrease in
0.0364836732	efficient way of
0.0364720266	experiments results show
0.0364677366	to view
0.0364630750	great interest to
0.0364456770	a proposal for
0.0364339048	not included
0.0364336641	need to find
0.0364232836	the percentage of
0.0364229533	the condition number of
0.0364207202	the proposed method gives
0.0364132698	an essential part of
0.0363849163	ignored by
0.0363842492	the association of
0.0363799689	a portion
0.0363707971	of uncertainty in
0.0363706362	the development and implementation
0.0363479619	a system using
0.0363371939	for deciding
0.0363293731	most appropriate
0.0363181513	best overall
0.0362850254	however in practice
0.0362645566	any information
0.0362414138	the automatic generation
0.0362357159	to try
0.0362343235	ie without
0.0362324087	often not
0.0362123703	this work studies
0.0361941439	an enhancement
0.0361835864	this research work
0.0361720915	to correspond
0.0361635947	various degrees
0.0361620343	main part of
0.0361409985	good tradeoff
0.0361380352	the need to develop
0.0361334251	a higher level of
0.0361104095	realm of
0.0361099018	an upper
0.0361035074	early as possible
0.0361007818	requires much
0.0360996598	by computer simulations
0.0360996087	the whole data
0.0360968192	same number of
0.0360908009	a small but
0.0360798611	possible to improve
0.0360714943	a large corpus of
0.0360672294	for specifying
0.0360670142	important part of
0.0360567073	not appear
0.0360482836	of interest to
0.0360438816	some previous
0.0360425506	this presentation
0.0360395132	efficient tool for
0.0360217734	range of possible
0.0360034561	the paper concludes by
0.0359817955	particular importance
0.0359817785	important tool for
0.0359716551	a constrained optimization
0.0359666190	a new research
0.0359620521	some experimental
0.0359566170	the fraction of
0.0359112906	a special type
0.0359078978	to close
0.0358956139	more useful
0.0358952515	to benefit
0.0358904286	a new modeling
0.0358849579	offs between
0.0358786437	the system into
0.0358733974	cornerstone of
0.0358700972	used to show
0.0358663239	both theoretical analysis and
0.0358629322	the same level
0.0358618583	our findings show
0.0358282103	important technique for
0.0358266135	analyzed in order to
0.0358140915	the analysis and design of
0.0358136423	appear in
0.0357836955	approaches in terms of
0.0357747083	for approximating
0.0357688306	thanks to
0.0357681461	good candidate
0.0357610442	this research focuses on
0.0357275210	by demonstrating
0.0356968987	a pool of
0.0356960156	a relatively high
0.0356640788	with other users
0.0356582434	a foundation for
0.0356430778	not easy to
0.0356121207	a system to
0.0356029870	implemented on top
0.0355726277	need to consider
0.0355641580	the space of possible
0.0355607962	for helping
0.0355336219	respectively then
0.0355312971	our main
0.0355307073	further discuss
0.0355242521	usually only
0.0355189357	instead of using
0.0355109191	to smooth
0.0355099579	handful of
0.0354977290	not capable
0.0354949780	a case study for
0.0354917879	both temporal
0.0354803090	a serious
0.0354794233	a ranked
0.0354768260	both theoretical
0.0354623957	however since
0.0354460781	to program
0.0354410793	an estimate
0.0354382090	the exploration of
0.0354382090	the investigation of
0.0354282310	often very
0.0354256009	a new analytical
0.0354232836	the consideration of
0.0354211886	however due to
0.0354124290	experiment with
0.0353946940	paper by using
0.0353723533	a satisfactory
0.0353673021	to attempt
0.0353498058	the image into
0.0353108690	the downlink of
0.0353101945	our experimental results show
0.0353087284	the main feature of
0.0353041062	the first to
0.0353026036	both theoretical analysis
0.0352922398	presented in terms of
0.0352804265	the literature on
0.0352782756	the simulation results show
0.0352710169	ask for
0.0352527457	for prediction of
0.0352472896	in various applications
0.0352460734	system in order
0.0352457599	any number
0.0352395628	new direction
0.0352149055	a large amount
0.0352059684	for accessing
0.0351959884	an ever
0.0351632836	the limitation of
0.0351632091	clearly show
0.0351555051	the proof of
0.0351325491	a modification
0.0351291759	also used in
0.0351262953	a very promising
0.0351143658	last part of
0.0350889089	a barrier to
0.0350876821	often found
0.0350816298	a new approach based
0.0350793953	this problem in
0.0350703416	difficult due
0.0350665935	a fundamental problem in
0.0350660725	a new version of
0.0350645991	used to give
0.0350548342	time by using
0.0350418138	a key part
0.0350369573	both positive
0.0350286086	needs only
0.0350245492	the analysis on
0.0350026275	time spent in
0.0349870359	the expressiveness of
0.0349838886	to turn
0.0349763911	to link
0.0349723356	performs as well
0.0349609689	with up to
0.0349529740	the early stages of
0.0349509099	way to make
0.0349460747	all test
0.0349263551	take part
0.0349028510	work presented in
0.0348945156	the way to
0.0348893754	environments in order to
0.0348884213	a general class
0.0348792047	to supply
0.0348076538	the main drawback of
0.0347875180	a large part of
0.0347805973	of n points in
0.0347655678	in many practical
0.0347581045	the design implementation and evaluation of
0.0347566173	the distance between two
0.0347409036	resources in order to
0.0347328961	a bank of
0.0347324194	a challenging problem due
0.0347317762	the formulation of
0.0347186003	the journal of
0.0347135231	by focusing on
0.0346905383	the design and implementation
0.0346878851	to generalize
0.0346547761	with other existing
0.0346524139	our experiment results
0.0346517573	further extended to
0.0346154651	an important part
0.0346055562	the first attempt to
0.0345685825	effective way of
0.0345650314	the other three
0.0345634928	one major
0.0345632306	most useful
0.0345482282	a sufficient
0.0345457334	a prominent
0.0345451060	a thorough analysis of
0.0345451060	a lot of work
0.0345430860	by referring to
0.0345280674	a key feature of
0.0345256387	not perform well
0.0345248194	all available
0.0345234308	the performance and scalability
0.0345109348	system in order to
0.0345013885	very easy to
0.0344979046	the performance evaluation of
0.0344942777	the good performance of
0.0344907458	the minimum distance of
0.0344775593	or at least
0.0344722228	new classes of
0.0344683122	conceived to
0.0344562171	in comparison to other
0.0344465874	the expense
0.0344460459	a better understanding
0.0344396147	the initial value
0.0344276589	to direct
0.0344260482	only needs
0.0344229533	a numerical method for
0.0344062084	cost associated
0.0343942700	proposed by using
0.0343822485	better use of
0.0343821469	mainly due
0.0343774337	signals in order to
0.0343653894	to exist
0.0343634441	the last one
0.0343618846	any point in
0.0343529017	all necessary
0.0343328885	the calculus of
0.0343270215	system to provide
0.0343168249	this paper provides
0.0343156473	to group
0.0343051272	in science and engineering
0.0342911408	the best known
0.0342814044	by focusing
0.0342728189	no more
0.0342639590	to depend
0.0342614768	to sample
0.0342609302	the information from
0.0342540229	an opportunity to
0.0342527457	the linear system
0.0342445635	an algorithm based on
0.0342371207	a control system
0.0342177856	the training and testing
0.0342165638	move to
0.0342147386	widely used to
0.0342126918	good candidate for
0.0342115803	the amount
0.0342051648	technologies in order to
0.0342037472	to contact
0.0341989180	a new form of
0.0341902457	a model with
0.0341896516	work towards
0.0341628369	the main focus of
0.0341401850	often need to
0.0341208095	some kind
0.0341154232	almost all
0.0341118724	helped to
0.0341105990	a reduced number of
0.0341055562	the syntax and semantics of
0.0340945638	to other methods
0.0340811857	the list of
0.0340698024	efficient than
0.0340512764	become part of
0.0340504848	linear system of
0.0340452521	the time needed
0.0340243802	to vary
0.0340195290	with different characteristics
0.0340110442	a fundamental role in
0.0339899928	the data for
0.0339621126	the framework in
0.0339620246	an important feature of
0.0339559212	to target
0.0339514593	area of research in
0.0339508942	a type of
0.0339315173	to allow for
0.0339274819	the following problem
0.0339227678	analyzed by using
0.0339213009	the set of possible
0.0339012617	not designed to
0.0338993964	idea of using
0.0338842134	one reason for
0.0338838234	very large number of
0.0338822868	some related
0.0338747354	a method based on
0.0338728838	an answer to
0.0338659727	computed by using
0.0338539640	does not use
0.0338427798	analysis in order to
0.0338408234	only about
0.0338405177	full advantage
0.0338370670	the work on
0.0338268239	in view of
0.0338144523	the model allows
0.0338102581	this approach allows
0.0338092256	to outline
0.0338025623	an increase
0.0337987204	to trade
0.0337958426	also used for
0.0337864755	taken into account in
0.0337738221	the method provides
0.0337704265	this problem by
0.0337657082	one class of
0.0337599502	impractical to
0.0337588967	the model uses
0.0337575924	n points in
0.0337539917	taking into
0.0337460608	a computer system
0.0337432601	solutions in terms of
0.0337243366	system by using
0.0337166932	new variant of
0.0337076363	in order to give
0.0337038697	obtained in terms of
0.0337029272	no false
0.0336974000	successfully used to
0.0336634600	the work in
0.0336238226	an interest in
0.0336227944	a fine
0.0335830090	certain cases
0.0335794198	a limited amount of
0.0335698347	to aggregate
0.0335640527	the past three
0.0335596226	as well as to
0.0335426807	this special
0.0335347091	to focus
0.0335308284	looks for
0.0335308041	the dynamic nature of
0.0335094793	new notion of
0.0335043681	a very fast
0.0335041357	used to further
0.0334993672	of two independent
0.0334979046	the network topology and
0.0334957334	a negligible
0.0334936897	a foundation
0.0334346357	not guarantee
0.0334340946	logs from
0.0334135711	some sort
0.0334114183	in computer networks
0.0334094569	the potential use of
0.0333758067	the paper uses
0.0333734547	second half
0.0333690162	able to use
0.0333689236	scheme in order to
0.0333676960	designed and implemented to
0.0333651607	not necessary
0.0333575924	the prospect of
0.0333457228	a methodology based
0.0333186679	the proposed algorithm provides
0.0333186679	the proposed approach provides
0.0333074211	also possible to
0.0332824018	a certain number
0.0332794699	with other approaches
0.0332700976	the first results
0.0332553755	a publicly available
0.0332529231	between two or more
0.0332345766	mechanism in order to
0.0332284739	a significant amount
0.0332268218	with very high
0.0332259877	several variants
0.0332204865	and more recently
0.0332117503	performance in order to
0.0332097377	natural way to
0.0331984429	the property of
0.0331967461	not well
0.0331800952	depend only
0.0331781075	an incentive to
0.0331722712	of paramount importance in
0.0331635367	for coping with
0.0331632836	a mechanism for
0.0331340114	to work on
0.0331316239	for discovering
0.0331200069	with much less
0.0331187057	thus leading to
0.0331116102	recent interest
0.0331017977	to name
0.0330868473	all other
0.0330801047	an image with
0.0330697566	the dynamic behavior of
0.0330683676	allow for
0.0330576477	well studied in
0.0330507406	a steady
0.0330451060	an increasing interest in
0.0330430469	a guideline for
0.0330428558	information in particular
0.0330370373	a vital
0.0329986824	the covariance matrix of
0.0329871183	not usually
0.0329640802	the three main
0.0329570152	to scale to
0.0329529215	enough to
0.0329525563	possible solution to
0.0329486665	system to solve
0.0329476753	performance by using
0.0329454486	also gives
0.0329382090	and efficiency of
0.0329260554	since most
0.0329234308	the temporal and spatial
0.0329213009	this algorithm uses
0.0329085521	a very difficult
0.0328708513	both accuracy and
0.0328570528	not only from
0.0328452845	the system allows
0.0328427902	a panel of
0.0328141580	system performance in terms of
0.0327993389	those found in
0.0327975799	a new version
0.0327885975	this line of
0.0327834851	to put
0.0327805973	for children with
0.0327639379	then employed to
0.0327317762	the computation time
0.0327232935	the different approaches
0.0327225835	used during
0.0327219036	the performance gain of
0.0327171977	later on
0.0327131894	the proposed algorithm uses
0.0327099210	take place in
0.0326770427	increasing amount
0.0326758457	nodes as well
0.0326747384	and other factors
0.0326094025	a good way
0.0325838427	the moment of
0.0325747254	the creation of new
0.0325697574	therefore important to
0.0325675307	a computationally
0.0325566209	or more
0.0325492194	the third one
0.0325154864	little attention to
0.0325139379	in reasonable time
0.0325094793	also proposed to
0.0325042837	often used in
0.0325031896	little attention in
0.0324911867	little or
0.0324909602	the case study of
0.0324881610	the negative effects of
0.0324766172	system design for
0.0324711973	relatively easy to
0.0324644741	to make use of
0.0324641225	the proposed approach uses
0.0324225551	the computational cost of
0.0324071727	structure as well
0.0323951568	an important class
0.0323884128	the two main
0.0323757515	the asymptotic behavior of
0.0323707971	the solution in
0.0323407696	the design and evaluation
0.0323384570	a tendency to
0.0323362089	in particular for
0.0323239996	easy way to
0.0323077327	this paper looks at
0.0322926702	work deals with
0.0322759304	the performance analysis of
0.0322653485	the most useful
0.0322559654	the sensitivity to
0.0322299475	time required to
0.0322229619	a database for
0.0322187443	a newly
0.0321794912	but also from
0.0321746623	a compromise between
0.0321721036	with other people
0.0321654441	the case of two
0.0321547574	to point
0.0321539739	a class of non
0.0321334657	the elaboration of
0.0321328419	this work deals with
0.0321276589	to lower
0.0321122954	only need to
0.0321111192	methods used for
0.0320955869	given set of
0.0320950785	the time complexity of
0.0320822370	the convergence rate of
0.0320714943	an effective approach to
0.0320714943	a systematic study of
0.0320711029	the inverse of
0.0320707397	a very challenging
0.0320451060	a good candidate for
0.0320411987	in order to do
0.0320299251	the added value
0.0320231353	a necessary and sufficient
0.0320171692	to get more
0.0320048500	amount of research
0.0320024075	two orders of
0.0319768367	an estimation of
0.0319656698	for simulating
0.0319623485	to account
0.0319566170	a change in
0.0319263443	appropriate number of
0.0319232836	the proportion of
0.0319207483	seen in
0.0319187320	depends only
0.0319141580	new concept of
0.0319112330	a better performance
0.0319051107	the other hand if
0.0319028510	time estimation of
0.0319024831	a new notion of
0.0318981302	first part of
0.0318927325	an associated
0.0318708031	both in terms of
0.0318566396	novel use of
0.0318415176	to speed
0.0318352666	a challenge for
0.0318346901	the mismatch between
0.0318235710	however in order
0.0318181429	both direct and
0.0318179529	the development process of
0.0318178530	interest in recent
0.0318151579	three kinds
0.0318144523	the method allows
0.0317988267	the ber performance of
0.0317942983	a probabilistic approach to
0.0317871598	the main idea of
0.0317822210	the convergence behavior of
0.0317796498	as possible
0.0317758067	a function of time
0.0317728570	possible because
0.0317610442	a positive impact on
0.0317570014	very important for
0.0317406378	a bound on
0.0317049349	some sufficient
0.0317007456	to become more
0.0316942098	the other for
0.0316932220	a new model of
0.0316908254	an upper bound of
0.0316746850	for deriving
0.0316495114	each base
0.0316266585	the system consists of
0.0316215557	the past several
0.0316187421	but also provide
0.0316145960	new way to
0.0316040532	interest due to
0.0315998100	an empirical study of
0.0315993416	a very limited
0.0315748413	no need to
0.0315722377	to attribute
0.0315714295	any possible
0.0315630873	an effective method to
0.0315629632	to make full use of
0.0315591487	the first step towards
0.0315537598	the possibility of using
0.0315451060	a challenging task due to
0.0315394152	kept in
0.0315387855	also taken into
0.0315354088	not only provide
0.0315342489	to do with
0.0315186638	this method uses
0.0315181597	the remainder of
0.0314947376	effectiveness and robustness of
0.0314907458	a distributed algorithm for
0.0314898599	of moving objects in
0.0314878219	the optimal design of
0.0314704891	and more complex
0.0314629356	a new way of
0.0314585693	approach in order to
0.0314504458	this work aims to
0.0314458915	of interest as
0.0314287261	as well as for
0.0314229533	the joint distribution of
0.0314021659	overall system
0.0313973261	then applied to
0.0313963504	due to lack
0.0313875371	an efficient approach for
0.0313821078	this framework allows
0.0313821078	novel algorithms for
0.0313593794	scale well
0.0313506334	a consequence of
0.0313433714	those given
0.0313360243	often leads to
0.0313328885	the response time of
0.0313232093	the quest for
0.0313232093	the fulfillment of
0.0313113275	a new variant of
0.0313013344	both simulated
0.0312971742	the problem into
0.0312953394	performed on two
0.0312885338	the developer to
0.0312521084	the past two
0.0312252112	connect with
0.0312176629	a given time
0.0311993383	a significant number
0.0311815401	in terms of mean
0.0311599766	a common set
0.0311483852	second part of
0.0311477708	a near
0.0311452631	of various parameters
0.0311427798	image in order to
0.0311345211	the excellent performance of
0.0311334657	the inability to
0.0311217662	effectively used to
0.0311203514	system in particular
0.0310961654	found between
0.0310659779	an essential component of
0.0310601551	a very effective
0.0310259682	those generated
0.0310229533	the discriminative power of
0.0310229533	the main reason for
0.0310224272	most general
0.0310071844	often leads
0.0309610791	the bottom of
0.0309566170	a classification of
0.0309527298	the effect of various
0.0309491223	in order to further
0.0309426321	the literature by
0.0309283602	system consists of two
0.0309138944	time in order
0.0309121897	a comparison with
0.0308944471	a novel energy
0.0308795451	to refer
0.0308575924	the practicability of
0.0308534675	an understanding
0.0308517977	to appear
0.0308422853	a new characterization
0.0308351756	feasibility of using
0.0308350626	usually used to
0.0308266409	and more efficient
0.0308224583	the same set
0.0308211706	this paper seeks
0.0308159437	and more effective
0.0308141549	some future
0.0308115569	both analytical and
0.0308012731	time needed to
0.0307988267	the design space of
0.0307988267	a parallel implementation of
0.0307984990	mean value of
0.0307951060	a challenging problem due to
0.0307790660	for example in
0.0307764286	a novel way to
0.0307724064	a strategy for
0.0307719544	as shown by
0.0307693829	to contribute to
0.0307652951	more about
0.0307633892	the problem under
0.0307563012	a new way to
0.0307489451	performance as well as
0.0307313634	to outperform
0.0307310386	integral part
0.0307281940	with very little
0.0307062651	the model provides
0.0307013921	the boundary between
0.0306968987	two groups of
0.0306810581	provides access to
0.0306731899	the intention to
0.0306718859	but also by
0.0306716639	as well as on
0.0306605253	the field in
0.0306574569	the separation of
0.0306574569	and visualization of
0.0306574569	the communication between
0.0306446179	well even
0.0306223469	and better performance
0.0306209967	to operate at
0.0306102680	to cause
0.0306087676	good approximation of
0.0305996221	relative performance of
0.0305775801	an efficient method to
0.0305585232	practical use of
0.0305571690	the population of
0.0305527026	with consideration of
0.0305512847	the proposed scheme provides
0.0305491352	to achieve good
0.0305412783	novel type of
0.0305303491	each other in
0.0305232836	and reliability of
0.0305209027	a number of different
0.0305206648	by at most
0.0305173167	the system performance in
0.0305146264	this paper concentrates on
0.0305102552	such as location
0.0304999099	a given system
0.0304986350	not able to
0.0304973081	those obtained from
0.0304958013	the training time
0.0304840518	not included in
0.0304681208	the upper bound on
0.0304668587	a chance to
0.0304612442	as well as providing
0.0304543461	novel approach for
0.0304386947	the previous ones
0.0304353655	used within
0.0304306004	a very complex
0.0304236143	the authenticity of
0.0304232836	a cluster of
0.0303983354	technique in order to
0.0303897503	becomes even
0.0303884441	a type system
0.0303844290	follows from
0.0303784394	a very important role in
0.0303737983	order to take
0.0303688516	an insight into
0.0303461222	an effective way to
0.0303460608	the last two
0.0303454319	as much
0.0303416020	overhead while
0.0303362335	some known
0.0303328885	the number of vertices of
0.0303252637	the optimal solution for
0.0303126202	most efficient
0.0303017355	order to cope with
0.0302982185	a message to
0.0302751547	the impact of different
0.0302527457	for detection of
0.0302510786	in contrast with
0.0302283824	each other to
0.0302270224	for many applications
0.0302174606	feasibility and effectiveness of
0.0302144365	utilised to
0.0301970609	a promising approach to
0.0301900314	this family of
0.0301858200	to perform well
0.0301819234	a very general
0.0301780343	system capable of
0.0301398507	a prototype of
0.0301220052	certain types
0.0301201225	the uplink of
0.0301166076	a new mathematical
0.0301125581	the first time to
0.0301076363	an image into
0.0301067591	the desire to
0.0301031152	a discussion on
0.0300967216	used for example
0.0300903715	necessary in order to
0.0300813938	need to use
0.0300766172	system architecture for
0.0300678595	different stages of
0.0300605731	made at
0.0300507586	to work together
0.0300390747	work introduces
0.0300229533	the major contribution of
0.0300176681	the task in
0.0300141396	ignored in
0.0300080286	a novel way
0.0300004934	a cellular system
0.0299816353	any information about
0.0299797204	those produced
0.0299779899	this paper gives
0.0299570152	a different approach to
0.0299457315	in order to better
0.0299348099	too large to
0.0299224490	simple example
0.0298880577	the design and analysis
0.0298648045	the lattice of
0.0298511791	novel application of
0.0298249561	a balance between
0.0298232070	the main part
0.0298159437	and more robust
0.0298133109	novel approach to
0.0297951060	an increasing need for
0.0297936733	work presented here
0.0297934211	a compact representation of
0.0297803491	but also for
0.0297726718	nodes in order to
0.0297688514	with at most
0.0297647272	to look at
0.0297606488	a hybrid approach to
0.0297487759	system consisting
0.0297179284	a possibility to
0.0297018439	this level of
0.0297017436	an important step in
0.0296924884	possible to find
0.0296789202	the coexistence of
0.0296724707	to use for
0.0296690517	still far
0.0296588755	too complex to
0.0296574569	the execution time
0.0296564583	two different types
0.0296478001	does not rely
0.0296428576	first implementation of
0.0296381695	not much
0.0296275043	very different from
0.0296244370	to become
0.0296143482	an equal
0.0296128032	and then apply
0.0295864512	the solution for
0.0295809724	both spatial and
0.0295761444	a novel class of
0.0295578054	problem in particular
0.0295557296	the system based on
0.0295509278	come in
0.0295145997	a representation of
0.0295099799	coefficient between
0.0294991829	each vertex of
0.0294831553	different kind of
0.0294812358	described in terms
0.0294229533	the high cost of
0.0294196584	approach allows to
0.0294064465	to allow users to
0.0294010706	the versatility of
0.0293961881	an effective method for
0.0293952631	and then applied
0.0293543822	a computational model of
0.0293443775	a valuable tool for
0.0293328885	the radius of
0.0293315384	corresponding to different
0.0293179708	changes such as
0.0292971742	the framework provides
0.0292936892	a detailed study of
0.0292925563	to suffer
0.0292882850	allow users to
0.0292854562	the relationship among
0.0292748580	not even
0.0292669816	to exhibit
0.0292521084	better quality of
0.0292483690	the transition from
0.0292452665	to rely
0.0292447010	to test for
0.0292014155	a correspondence between
0.0292008838	however even
0.0291988534	the minimum mean
0.0291814341	to market
0.0291736286	the study on
0.0291644221	certain class of
0.0291629533	a formal framework for
0.0291484796	better able to
0.0291338101	novel scheme for
0.0291331433	a mathematical model of
0.0291260496	system consists of
0.0291225793	an exploration of
0.0291209967	to cooperate with
0.0291157054	process in order to
0.0290898459	to conclude
0.0290750025	also used to
0.0290713812	this perspective
0.0290711029	the removal of
0.0290711029	the prototype system
0.0290675265	new form of
0.0290628290	potential use of
0.0290615864	several kinds
0.0290570993	by relying
0.0290566170	the link between
0.0290407636	then used for
0.0290332056	to experiment with
0.0290234912	other kinds
0.0290229533	an analytical framework for
0.0290225840	seen from
0.0290104892	to use as
0.0290074445	performance and scalability of
0.0289991791	provides information about
0.0289988396	an essential step in
0.0289927386	taken into consideration in
0.0289798008	uses only
0.0289736533	spirit of
0.0289701417	for example for
0.0289622655	just as
0.0289508942	an area of
0.0289487276	given in terms of
0.0289031770	not adequate for
0.0289008457	conditions as well
0.0288971742	new version of
0.0288963806	the programmer to
0.0288941262	technique does not
0.0288784394	an outline of
0.0288531152	this issue by
0.0288502978	but do not
0.0288487790	the outage probability of
0.0288428784	most widely used
0.0288407861	often associated with
0.0288315733	to operate in
0.0288140106	in agreement with
0.0287982317	the current work
0.0287761539	to zero
0.0287593816	some particular
0.0287579811	this method allows
0.0287566173	the completeness of
0.0287488396	a negative impact on
0.0287483690	the quantity of
0.0287338785	possible without
0.0287114512	to use in
0.0287028744	a range of different
0.0287019972	the deficiency of
0.0286960775	an integrated framework for
0.0286928481	but also provides
0.0286880542	a specific set
0.0286789202	the left and right
0.0286616322	the method does not
0.0286597449	the novel concept
0.0286529124	a significant part
0.0286305973	a certain time
0.0285970152	the time needed to
0.0285885977	to move from
0.0285761711	particular attention to
0.0285570152	used as input to
0.0285454003	a process for
0.0285257933	a selection of
0.0285241583	three aspects of
0.0284891956	new method for
0.0284664316	the general problem of
0.0284349292	those used in
0.0284208241	to provide better
0.0284196584	advantage of using
0.0284141580	the emergence of new
0.0284112798	for various applications
0.0284007480	to provide insight into
0.0283971742	this model provides
0.0283962030	ones such as
0.0283954485	our approach consists of
0.0283908222	more robust to
0.0283849071	the presence or absence
0.0283815541	made between
0.0283795154	three different types of
0.0283778152	the same approach
0.0283719059	the various types
0.0283705411	moreover in order to
0.0283678417	does not only
0.0283497088	and many others
0.0283202511	this model allows
0.0283120996	the original system
0.0283108690	in space and time
0.0283101828	this paper aims at
0.0282961042	necessary step
0.0282936892	the key feature of
0.0282345766	designed in order to
0.0282334657	the solvability of
0.0282229619	a node in
0.0281960775	a significant reduction of
0.0281895991	new kinds of
0.0281886813	used instead of
0.0281632836	and robustness of
0.0281575527	the competitiveness of
0.0281169771	the number of transmit
0.0280829523	many areas of
0.0280693885	any set
0.0280628697	changes due to
0.0280572635	novel methodology
0.0280525064	this paper deals
0.0280398098	and verification of
0.0280155963	an example in
0.0280098814	the latter one
0.0280076597	each other as
0.0280002663	does not work
0.0279911867	indicated by
0.0279813075	found by
0.0279710170	the proposed method does not
0.0279392988	more similar to
0.0279356211	a conjecture of
0.0279187751	useful information to
0.0279187751	more important for
0.0279114101	process as well as
0.0278911541	time evolution of
0.0278761445	between two different
0.0278660705	the role played by
0.0278589191	the source code of
0.0278549769	the position and orientation
0.0278447010	a strategy to
0.0278331028	the interaction with
0.0278321316	model as well
0.0278175825	a demonstration of
0.0278131349	reduced by using
0.0277830543	a common approach to
0.0277698938	both synthetic and
0.0277663316	able to give
0.0277623419	found at
0.0277483690	the possibility to
0.0277455844	a face to
0.0277405266	with n vertices and
0.0277346258	the main part of
0.0277283824	to help in
0.0277263536	the future in
0.0277148362	or less
0.0277122401	to assist in
0.0277115606	a union of
0.0277016839	the above two
0.0276844083	in order to use
0.0276789202	the decidability of
0.0276789202	the promotion of
0.0276719600	well as
0.0276666657	a significant influence on
0.0276623885	also described
0.0276623146	the angle between
0.0276600174	in terms of bit
0.0276350407	rather than to
0.0276206028	a need to
0.0276153932	an efficient algorithm to
0.0276098040	novel architecture for
0.0275647329	system needs to
0.0275528627	to state
0.0275518405	a way for
0.0275400314	used in order to
0.0275257933	a novel method of
0.0274947616	new proof of
0.0274902036	and uniqueness of
0.0274801674	to achieve better
0.0274762745	a simple method to
0.0274737475	to act as
0.0274709392	a portion of
0.0274664316	the high number of
0.0274661979	very hard to
0.0274613662	as for example
0.0274581028	the first time in
0.0274507358	very well in
0.0274482298	possibility of using
0.0274482208	still not
0.0274469793	an ability to
0.0274400314	the previous one
0.0274328885	as defined in
0.0274112851	the standard for
0.0274079250	appear as
0.0274053775	used to deal with
0.0273949198	many kinds
0.0273875581	and specificity of
0.0273737826	the basic idea of
0.0273718045	this approach provides
0.0273658190	the line of
0.0273498058	new approach to
0.0273495213	a connection between
0.0273462679	a new security
0.0273460815	work aims at
0.0273433332	to lack
0.0273430860	to switch between
0.0273367503	knowledge in order to
0.0273131726	but also on
0.0272984429	to focus on
0.0272847053	specified as
0.0272829014	not sensitive to
0.0272680119	the feasibility of using
0.0272607855	vicinity of
0.0272469392	the particular case
0.0272298098	new method based on
0.0272254830	trip time
0.0272195309	other methods for
0.0271995671	each other by
0.0271966170	a dataset of
0.0271932220	a sense of
0.0271909442	the original one
0.0271869283	a new kind
0.0271585805	a small amount
0.0271575138	our results also
0.0271513176	the data from
0.0271442758	environment as well
0.0271391420	also significantly
0.0271390545	each other through
0.0271386491	especially useful for
0.0271036680	three levels of
0.0271020459	specified in
0.0270924414	the variation in
0.0270923687	the design development and
0.0270908190	and so on in
0.0270822370	the visual quality of
0.0270709780	imperative to
0.0270570152	new generation of
0.0270566170	the motivation for
0.0270409868	the necessary and sufficient conditions
0.0270392379	the average time
0.0270356871	a personal computer
0.0270329014	the most frequently used
0.0270329014	those obtained with
0.0270060014	a necessary condition for
0.0270014899	not only allows
0.0269718740	the first stage of
0.0269706362	the efficiency and effectiveness
0.0269507556	this work deals
0.0269222364	to back
0.0269132962	not only provides
0.0268971742	any set of
0.0268905257	the experimental results indicate
0.0268821263	very useful to
0.0268752783	the department of
0.0268702378	and validation of
0.0268680464	do not use
0.0268648045	a translation of
0.0268488357	the part of
0.0268408250	the predictability of
0.0268408250	the philosophy of
0.0268395797	to provide more
0.0267988267	a dynamic model of
0.0267887227	for example to
0.0267872695	not only to
0.0267828210	a linear system
0.0267791062	in particular to
0.0267789202	the shortcoming of
0.0267693829	the foundation for
0.0267628271	the optimal solution in
0.0267581554	a library of
0.0267560014	in contrast to most
0.0267405964	useful tool for
0.0267219036	a software tool for
0.0267101873	the practical application of
0.0267100885	the characteristic of
0.0267000261	the response to
0.0266970152	new type of
0.0266848726	the work done
0.0266831028	better able
0.0266718859	for example by
0.0266605253	the performance in terms of
0.0266605253	the scene in
0.0266523336	to perform better
0.0266478544	but also to
0.0266325883	the amount of time
0.0266297084	to let
0.0266266585	the difficulty in
0.0266029807	and more flexible
0.0266020273	to contain
0.0265917443	a powerful tool to
0.0265869989	the computational power of
0.0265727435	a genetic algorithm for
0.0265628075	spite of
0.0265594103	the advancement of
0.0265400314	different level of
0.0265313327	a useful tool to
0.0265232836	a reduction in
0.0265143034	our approach does not
0.0265125990	as more and more
0.0264938586	the capacity to
0.0264893607	more than three
0.0264846258	the combined use of
0.0264733938	this problem as
0.0264730246	such kind of
0.0264589221	both static and
0.0264410756	a simulator for
0.0264004455	a language for
0.0263971226	the literature in
0.0263971226	the literature for
0.0263956028	the improvement in
0.0263942983	a general method for
0.0263647312	the effect of different
0.0263328885	the similarity between two
0.0263160434	a new definition of
0.0263062651	a number of other
0.0262925475	the optimal solution of
0.0262925475	a model based on
0.0262887533	done for
0.0262829014	two categories of
0.0262749649	time needed for
0.0262563012	to try to
0.0262527772	a large part
0.0262467714	the world in
0.0262334657	the equivalence between
0.0262011585	the hardness of
0.0261917467	the formal verification of
0.0261853833	most crucial
0.0261791746	and more important
0.0261699469	time required for
0.0261663898	then by using
0.0261596827	in terms of both
0.0261591601	the human visual system
0.0261372911	algorithm in order to
0.0261162989	the motivation of
0.0261162348	to recover from
0.0261142993	novel methodology for
0.0261004574	able to show
0.0260986824	an empirical investigation of
0.0260646291	of great importance to
0.0260618968	a new similarity
0.0260586116	as basis for
0.0260287422	an experimental study on
0.0260249649	our method provides
0.0260229533	the distributed nature of
0.0260059879	these two types of
0.0259855253	the same time in
0.0259829214	implemented in order to
0.0259745230	powerful than
0.0259721871	made available to
0.0259718740	the background of
0.0259570152	the practical use of
0.0259548373	work together to
0.0259414508	a natural way to
0.0259349292	currently used in
0.0259330147	an efficient approach to
0.0259306798	system performance by
0.0259210341	a certain degree of
0.0259090790	to operate on
0.0258971742	the impact of various
0.0258881212	some necessary
0.0258728046	both local and
0.0258501708	a promising solution to
0.0258447010	a novel method to
0.0258273138	both real and
0.0258227487	then extended to
0.0258175825	a constraint on
0.0258135367	in order to describe
0.0258087688	but not for
0.0257998841	the main result of
0.0257988267	a formal model of
0.0257983106	undertaken to
0.0257951060	a particular focus on
0.0257878122	most fundamental
0.0257851738	or not to
0.0257579811	not capable of
0.0257410471	and then used
0.0257382188	a novel approach based on
0.0257027538	in recent years due
0.0257025441	the challenge to
0.0257007456	as described in
0.0256975356	different categories of
0.0256508383	these two kinds of
0.0256411897	computationally more
0.0256295154	some degree of
0.0256092556	the recent advances in
0.0255852277	an effective solution to
0.0255552049	an opportunity for
0.0255533042	not only for
0.0255382850	different modes of
0.0255352252	need for efficient
0.0255344812	as special cases of
0.0255324268	an effective approach for
0.0255229533	the main components of
0.0255108680	a definition of
0.0255063306	a case study from
0.0254942626	the efficiency and accuracy
0.0254937421	to pay for
0.0254914132	both sides of
0.0254800854	mainly because of
0.0254794731	taken into account by
0.0254783551	to improve upon
0.0254770632	an eclipse
0.0254752565	a short period of
0.0254696503	use of computer
0.0254683813	the base of
0.0254534559	a community of
0.0254385973	any combination of
0.0254328885	a possibility of
0.0253894606	same frequency
0.0253835505	the user needs
0.0253777196	into account in
0.0253744221	new methods for
0.0253658190	the arrangement of
0.0253658190	the elderly and
0.0253346901	each pixel in
0.0253331028	the stabilization of
0.0253328885	the development and implementation of
0.0253328885	a testbed for
0.0253318517	overall accuracy of
0.0253313327	also conducted to
0.0253291253	better than other
0.0253164858	the object of
0.0252852818	large part of
0.0252825188	a very good
0.0252729127	time in particular
0.0252475870	of interest from
0.0252409031	a large volume of
0.0252375611	the proposed method allows
0.0252210608	a measure for
0.0251981272	a single point of
0.0251910929	to slow
0.0251895991	an expression for
0.0251843429	a few of
0.0251690578	particularly useful in
0.0251421367	only able to
0.0251342327	this question by
0.0251210608	the sparsity of
0.0251209074	then used in
0.0251086115	work well for
0.0251060128	achieve very
0.0251006033	the coupling between
0.0250942626	the accuracy and efficiency
0.0250758113	not suitable to
0.0250745917	seen by
0.0250657425	no information about
0.0250576141	an example for
0.0250538832	come with
0.0250353634	taken in
0.0250334999	further analysis of
0.0250329014	each kind of
0.0250294768	the automatic generation of
0.0250029395	the operational semantics of
0.0249991438	a systematic approach to
0.0249875581	the approach allows
0.0249874756	system designed to
0.0249693005	better in terms of
0.0249616697	a simple method for
0.0249408250	the weakness of
0.0249349292	done by using
0.0249290648	an infrastructure for
0.0249220818	the data used
0.0249192424	the distance from
0.0249008383	to compare different
0.0248992237	eg due to
0.0248990810	same conditions
0.0248988267	a theoretical framework for
0.0248976868	become much
0.0248905257	the experiment results show
0.0248884441	the interior of
0.0248821078	our approach allows
0.0248695938	work aims
0.0248546736	a look at
0.0248389520	do so in
0.0248382845	better understanding of
0.0248318685	the necessity to
0.0248302279	that none of
0.0248232221	used in most
0.0247960316	both quantitative and
0.0247875184	this work focuses
0.0247691586	made in order
0.0247679528	the effects of different
0.0247624756	the statistical analysis of
0.0247553650	need for
0.0247491037	the good performance
0.0247105663	new approach for
0.0246954273	to obtain better
0.0246822370	the total cost of
0.0246732185	system with two
0.0246289738	an integration of
0.0246236350	a new concept of
0.0245843429	the interest in
0.0245811683	or not in
0.0245784699	also able to
0.0245738395	takes into
0.0245571690	a probability of
0.0245433821	often used as
0.0245287874	over time in
0.0245280310	one or more of
0.0245229533	the unique characteristics of
0.0245198887	and more specifically
0.0245086761	the implementation of such
0.0245065390	a fragment of
0.0244874117	both hardware and
0.0244774230	some light
0.0244657746	time in addition
0.0244408250	to connect to
0.0244400314	a complete system
0.0244351903	the general case of
0.0244300705	not only on
0.0244290648	a new architecture for
0.0244209013	made with
0.0244083442	a very large number
0.0244053775	one kind of
0.0244025432	a tool to
0.0244008614	most challenging
0.0243990056	any combination
0.0243988267	a probabilistic model for
0.0243956028	the processing time
0.0243956028	the quantification of
0.0243924734	an improvement to
0.0243899554	a good starting
0.0243701662	a simple way to
0.0243543822	the convergence properties of
0.0243514055	the effectiveness and efficiency
0.0243498058	new algorithms for
0.0243464772	the correspondence between
0.0243221579	same result
0.0243066952	also serve as
0.0242976121	same object
0.0242917495	an innovative approach to
0.0242814430	those generated by
0.0242774591	a conceptual model for
0.0242770921	in particular if
0.0242624920	a focus on
0.0242611135	a common way
0.0242605253	this purpose in
0.0242591601	a mathematical model for
0.0242559654	a new measure of
0.0242319116	a much better
0.0241975356	three groups of
0.0241780539	order to get
0.0241587748	different configurations of
0.0241550167	in detail in
0.0241531511	the first phase of
0.0241454315	the richness of
0.0241133724	promising way
0.0241100250	the task at
0.0241090114	the reason for
0.0241090114	a concept for
0.0240895731	the key idea of
0.0240801047	to result in
0.0240739152	an automated system
0.0240627008	both simulated and
0.0240570152	a mapping from
0.0240402089	this work provides
0.0240229024	system consisting of
0.0239957315	a new scheme for
0.0239933086	the proposed method does
0.0239904396	to indicate
0.0239828790	taken at
0.0239718740	the discretization of
0.0239715126	the search space in
0.0239661029	three different types
0.0239593401	made on
0.0239588460	over time as
0.0239470028	the objective function of
0.0239465921	mean number of
0.0239454680	order to allow
0.0239295104	a possible solution to
0.0239291346	different characteristics of
0.0239252637	a case study with
0.0239115210	a mapping between
0.0239090790	an idea of
0.0239081389	technique used to
0.0238884441	the time required for
0.0238767935	then compared to
0.0238759973	well understood in
0.0238467714	a consistent and
0.0238229619	a point of
0.0238178147	performance in particular
0.0237952896	not exist in
0.0237932220	with different levels of
0.0237932220	the era of
0.0237789202	the disadvantage of
0.0237776751	the necessary and sufficient
0.0237579811	several algorithms for
0.0237552806	the correlation among
0.0237345375	more important to
0.0237306146	this article provides
0.0237280880	a very useful
0.0237263536	a program to
0.0237063938	different areas of
0.0236968985	experiments on synthetic and
0.0236902457	an algorithm to
0.0236846509	new definition of
0.0236789202	the abundance of
0.0236601738	the pair of
0.0236358732	however in order to
0.0236227410	the progression of
0.0235817226	a field of
0.0235622257	look for
0.0235571690	a system based on
0.0235505961	not enough to
0.0235467119	a challenge to
0.0235446867	often referred to
0.0235411262	the different types of
0.0235400314	each level of
0.0235303328	the flexibility to
0.0235303328	a procedure to
0.0235229533	an empirical analysis of
0.0235173167	a cost of
0.0235066425	new technique to
0.0234963806	the functioning of
0.0234690768	most basic
0.0234414508	this approach does not
0.0234376059	to serve as
0.0234071914	made from
0.0234037874	the effect on
0.0234012042	the designer to
0.0233956028	the situation of
0.0233840349	to aid in
0.0233640967	at runtime in
0.0233598886	the expectation of
0.0233590473	time algorithm to
0.0233559654	a formalism for
0.0233533383	same size
0.0233328885	a basis of
0.0233328885	the root of
0.0233328885	the nonlinearity of
0.0233217774	to learn from
0.0232932125	most active
0.0232926763	the situation in
0.0232829014	different phases of
0.0232609302	the view of
0.0232438178	put in
0.0232315990	the model consists of
0.0232307778	in order to show
0.0232229619	system performance in
0.0232025359	only part of
0.0232018140	not necessary to
0.0231902457	a property of
0.0231822370	a lower bound for
0.0231775825	a cascade of
0.0231667867	various applications in
0.0231562952	also proposed in
0.0231545716	the consequence of
0.0231004934	an approximation to
0.0230370013	a continuum of
0.0230229533	an improved algorithm for
0.0230113677	the necessary and sufficient conditions for
0.0230052553	an enhancement of
0.0230003181	novel method for
0.0229991438	a large database of
0.0229909031	an effective technique for
0.0229794549	particular focus on
0.0229744596	the existing work
0.0229658190	the cooperation between
0.0229368011	the existence of such
0.0229328885	the backbone of
0.0229077289	only needs to
0.0228988267	the future development of
0.0228982850	a formalization of
0.0228884416	new method of
0.0228692340	work carried
0.0228648045	the system architecture and
0.0228523320	certain degree of
0.0228478862	a data set of
0.0228331028	the hypothesis of
0.0228331028	the first step of
0.0228321559	different groups of
0.0228307856	insufficient to
0.0228290169	the computational time
0.0228229619	best performance in
0.0228221579	same level
0.0228136813	different regions of
0.0228108362	the boundedness of
0.0228070888	to refer to
0.0227904275	more suitable to
0.0227749649	more attention to
0.0227659176	more information about
0.0227636483	the best model
0.0227494090	also found to
0.0227184720	the experimental results on
0.0227154411	a simple way
0.0227135670	through experiments on
0.0226790902	different methods for
0.0226744614	each iteration of
0.0226699469	an illustration of
0.0226698209	the following three
0.0226686954	more appropriate for
0.0226560238	to concentrate on
0.0226508383	to decide on
0.0226475203	with very few
0.0226236350	a topic of
0.0226194744	for calculation of
0.0226117145	a formulation of
0.0226081053	to report on
0.0225907458	a quantitative analysis of
0.0225618968	a novel class
0.0225571452	in two steps first
0.0225433774	the dynamic range of
0.0225426220	a key problem in
0.0225424975	accuracy as well
0.0225353440	first version of
0.0225351903	the major challenges in
0.0225347142	for dealing with
0.0225290648	a novel scheme for
0.0225211352	value problem for
0.0225136695	this problem based on
0.0224950030	the computational efficiency of
0.0224950030	the improved performance of
0.0224879049	a ratio of
0.0224760915	most previous work
0.0224704417	the potential of using
0.0224631006	a key component of
0.0224501157	a framework based on
0.0224414508	in recent years due to
0.0224410756	a subgraph of
0.0224410756	the number of vertices in
0.0224351903	the success rate of
0.0224338267	a proposal of
0.0223855201	the deviation of
0.0223851908	these two types
0.0223658190	the decrease in
0.0223536496	an empirical evaluation of
0.0223481030	a performance evaluation of
0.0223458013	the ability for
0.0223289362	an experiment in
0.0223130914	to other types of
0.0223130914	a new technique to
0.0222995903	these two kinds
0.0222991523	more important in
0.0222947222	more popular in
0.0222930161	overall performance of
0.0222749649	in terms of speed and
0.0222724984	the performance improvement of
0.0222579811	several methods for
0.0222515333	this methodology to
0.0222470146	as compared to other
0.0222458013	each class of
0.0222229619	to play in
0.0222229619	a methodology to
0.0222229619	a response to
0.0222024559	very popular in
0.0221978604	particular case of
0.0221900314	a new method to
0.0221838427	a resource for
0.0221728891	and standard deviation of
0.0221638380	only depends on
0.0221573742	to benefit from
0.0221473279	very well with
0.0221303328	as proposed by
0.0221257942	an impact on
0.0221173167	a standard for
0.0221152450	or better than
0.0221082873	also extended to
0.0220907175	different points of
0.0220873910	problem associated with
0.0220664316	a general model for
0.0220654149	this paper contributes to
0.0220616697	a training set of
0.0220570152	a repository of
0.0220561155	first time in
0.0220554006	to other existing
0.0220543461	any form
0.0220401418	new paradigm for
0.0220227782	new approaches for
0.0220220071	most stable
0.0220162218	two aspects of
0.0219875581	to occur in
0.0219570152	the whole set of
0.0219568685	in terms of number of
0.0219524730	often used for
0.0219370679	or more of
0.0219354818	case of non
0.0218982934	our experiments on
0.0218703652	new methodology for
0.0218665390	different type of
0.0218400215	to depend on
0.0218229619	a region of
0.0217988267	a simple model of
0.0217890837	the balance between
0.0217753916	order to show
0.0217752592	this approach uses
0.0217691747	to lead to
0.0217624756	the automatic detection of
0.0217505994	the baseline system
0.0217432763	new perspective on
0.0217384441	this problem by using
0.0217213270	from three different
0.0217064765	the ease of
0.0216865618	done with
0.0216726546	the widespread use of
0.0216684765	as possible to
0.0216517765	also referred to as
0.0216508383	an efficient way to
0.0216454013	a novel algorithm to
0.0216372337	the consistency between
0.0216046879	mean and variance of
0.0216004934	an assignment of
0.0215919048	a sort of
0.0215806474	our simulation results show
0.0215789857	design as well as
0.0215570152	a particular case of
0.0215461821	a novel combination of
0.0215440895	our experimental results indicate
0.0215418703	the opportunity of
0.0215313187	a technique based on
0.0215229324	a link between
0.0215195627	to perform better than
0.0215173167	a technique of
0.0214950030	the huge number of
0.0214909031	an important tool in
0.0214889627	a key issue in
0.0214884441	a novel method based on
0.0214884441	an element of
0.0214878219	a probabilistic model of
0.0214681208	to improve performance of
0.0214534559	the continuity of
0.0214534559	the middle of
0.0214410756	and completeness of
0.0214410756	a middleware for
0.0214355334	the variability in
0.0214328885	a neighborhood of
0.0214328885	a period of time
0.0214326571	our simulations show
0.0214193940	the information contained in
0.0214183821	not sufficient for
0.0214033824	this task in
0.0214004455	the workload of
0.0213988267	a statistical analysis of
0.0213980545	to compare with
0.0213956028	the discussion of
0.0213956028	the examination of
0.0213884441	a new implementation of
0.0213871596	a report on
0.0213666280	this paper looks
0.0213505994	the interaction among
0.0213502558	as follows in
0.0213495552	a variety of different
0.0213478139	the proposal of
0.0213449284	the simulation results indicate
0.0213363003	work well in
0.0213328885	the city of
0.0213289362	an environment for
0.0213178745	those based on
0.0212590254	different strategies for
0.0212533772	as possible in
0.0212239377	new challenges for
0.0212208326	a new approach based on
0.0211917467	the method consists of
0.0211900314	the advantage of using
0.0211900314	a mechanism to
0.0211886813	for example if
0.0211874710	work aims to
0.0211836208	not available in
0.0211587748	different layers of
0.0211573742	good performance in
0.0211470146	two different types of
0.0211043703	the development and evaluation of
0.0210915847	and point out
0.0210746891	various applications such as
0.0210716178	very difficult to
0.0210664316	the recent development of
0.0210626508	to check for
0.0210468859	good results in
0.0210351903	a conceptual model of
0.0210090254	good performance on
0.0210059879	a host of
0.0209851597	to rely on
0.0209820316	the early detection of
0.0209417633	the merit of
0.0209408250	the rationale for
0.0209328885	in contact with
0.0209087748	an explanation of
0.0208843203	an important role for
0.0208710408	a novel combination
0.0208605253	the various types of
0.0208605021	novel method based on
0.0208478139	a loss of
0.0208454013	of attention in
0.0208454013	an order of
0.0208315384	however because of
0.0208094168	much attention in
0.0208051266	in consideration of
0.0208009370	not hold for
0.0207988267	the minimal number of
0.0207988267	the main results of
0.0207932220	the interface between
0.0207891183	time difference of
0.0207882584	a novel technique to
0.0207749649	the most important issues in
0.0207634706	in recent years many
0.0207545716	the conclusion of
0.0207297298	an index of
0.0206860607	an analytical model for
0.0206516663	more computationally
0.0206489340	the evaluation results show
0.0206464249	not lead to
0.0206454003	in searching for
0.0206312987	the practical use
0.0206294708	not required to
0.0206226503	a major challenge in
0.0206050555	time in order to
0.0205948742	a challenge in
0.0205939236	by interacting with
0.0205868165	for instance in
0.0205803479	an effect on
0.0205774230	most reliable
0.0205692098	a task of
0.0205665616	an important topic in
0.0205534559	the large amount of
0.0205534559	the involvement of
0.0205504453	one aspect of
0.0205468859	a reference for
0.0205392112	provided in order to
0.0205286512	several properties of
0.0205269449	for diagnosis of
0.0204979046	the information provided by
0.0204929984	the existing ones
0.0204669629	this combination of
0.0204631006	a promising approach for
0.0204351903	the physical properties of
0.0204242863	the potential use
0.0204180206	novel framework for
0.0204180206	novel algorithm for
0.0204097130	not applicable to
0.0204072214	process as well
0.0204008383	an experiment using
0.0204004455	the parallelization of
0.0203988267	the design implementation and
0.0203916459	into consideration in
0.0203855201	the mapping from
0.0203328885	a sensitivity of
0.0203328885	in terms of performance and
0.0203321108	the formalization of
0.0203239152	further research on
0.0202636575	at least as
0.0202508597	most suitable for
0.0202426629	a technique to
0.0202358055	in connection with
0.0201813886	also presented to
0.0201726546	a new algorithm based on
0.0201405963	this paper by using
0.0201177147	an alternative approach to
0.0201121245	then proposed to
0.0201004934	a member of
0.0200979619	a view of
0.0200410756	an input to
0.0200351903	an optimal solution for
0.0200258474	this approach does
0.0200240241	with millions of
0.0200209324	new method to
0.0199957584	the asymptotic stability of
0.0199682035	first stage of
0.0199150118	good understanding of
0.0199108100	and more important in
0.0199073742	very important in
0.0198988267	the main challenges in
0.0198988267	the key features of
0.0198975397	an important task in
0.0198971742	two methods for
0.0198970146	in comparison with other
0.0198767155	then used as
0.0198695177	system with respect to
0.0198667764	a major issue in
0.0198629528	a major challenge for
0.0198130632	the opportunity for
0.0197471625	many aspects of
0.0197248994	to belong to
0.0197217749	an end to
0.0197096675	same level of
0.0197025441	the aim to
0.0197004722	interest in using
0.0196979950	further development of
0.0196657636	this result to
0.0196366513	overall goal of
0.0196074892	the effective use
0.0195935072	to run in
0.0195720442	this paper tries to
0.0195537464	an issue of
0.0195173167	a rate of
0.0195000448	more difficult to
0.0194934566	the conception of
0.0194871796	usually based on
0.0194870360	novel approach based on
0.0194745096	a promising technology for
0.0194719261	a solution based on
0.0194718740	a maximum of
0.0194594372	by relying on
0.0194478862	a mathematical model to
0.0194355334	the modification of
0.0194355334	the dependence on
0.0194230596	of length at
0.0194223320	a key factor in
0.0194223320	a critical issue in
0.0194067632	the standard deviation of
0.0194017016	time algorithms for
0.0193790415	the method used
0.0193667764	an important factor in
0.0193581053	better performance with
0.0193106127	also shown to
0.0193000261	to apply to
0.0192680654	a challenging problem in
0.0192579811	system composed of
0.0192330773	possible applications of
0.0192305998	an experimental evaluation of
0.0192210608	to run on
0.0192003181	therefore in order to
0.0191911979	useful tool in
0.0191810581	not designed for
0.0191795104	both theoretical and
0.0191482185	an effect of
0.0190987899	well in terms of
0.0190718740	the first step in
0.0190534559	the mapping between
0.0190355334	a prototype for
0.0189956028	the requirement for
0.0189855201	an environment with
0.0189741718	first attempt to
0.0189453240	thus resulting in
0.0189328885	a formula for
0.0189328885	in terms of throughput and
0.0189328885	a metric for
0.0189328885	the drawback of
0.0189008383	very important to
0.0188858474	the method does
0.0188830389	a challenging task for
0.0188667764	a key element in
0.0188648045	the effective use of
0.0188618815	used together with
0.0188572269	the received signal to
0.0188426629	an interface for
0.0188368165	more effective in
0.0188338460	an efficient way of
0.0188338460	a recent work
0.0188184432	a good approximation of
0.0188095541	a particular type
0.0187979251	also referred to
0.0187932220	a new method based on
0.0187717514	more attention in
0.0187530301	new ways of
0.0187242287	both qualitative and
0.0187063938	this paper also provides
0.0186665284	two approaches for
0.0186643266	mainly based on
0.0186508383	in many applications such as
0.0186508383	an effective way of
0.0186457082	new technique for
0.0185923587	each stage of
0.0185915847	very effective in
0.0185863662	good results for
0.0185159475	also presented for
0.0185062987	this paper in order to
0.0184871922	more flexible and
0.0184841716	each step of
0.0184673587	also allows for
0.0184648045	a benchmark for
0.0184454013	two approaches to
0.0184328885	each point in
0.0184049511	also applicable to
0.0184008383	an experiment with
0.0183933774	a theoretical model of
0.0183855201	the specificity of
0.0183667764	a significant improvement of
0.0183661683	not considered in
0.0183486244	this study provides
0.0183263536	the end to
0.0183217774	in terms of accuracy and
0.0182899415	further research in
0.0182749649	a novel concept of
0.0182426629	the idea of using
0.0181753745	novel combination of
0.0181715727	good performance of
0.0181644139	a simple but
0.0181508383	a relation between
0.0181433774	the method relies on
0.0180964880	in addition since
0.0180878219	an experimental study of
0.0180312609	this issue in
0.0180296194	of great importance in
0.0179705099	prerequisite to
0.0179668481	mostly based on
0.0179663162	a minimum mean
0.0179090790	this lack of
0.0179031092	full potential of
0.0178988267	a methodology based on
0.0178807210	to assist with
0.0178778199	the large amount
0.0178582983	not sufficient to
0.0178133112	in practice in
0.0177756554	new measure of
0.0177385678	time as well as
0.0177114064	the huge amount of
0.0177025441	new approaches to
0.0177001580	also discussed in
0.0176614550	then compared with
0.0176384038	also presented in
0.0176355958	three orders of
0.0176316594	also report on
0.0176168298	to continue to
0.0176151968	several experiments on
0.0175334809	to take into
0.0175027472	the structural properties of
0.0174339568	an important role in many
0.0174328885	the approach uses
0.0174220561	an important issue for
0.0174008383	an experiment on
0.0173817018	a challenging task in
0.0173792093	as defined by
0.0173143051	first step in
0.0172165915	provides support for
0.0171935090	also considered in
0.0171575790	new architecture for
0.0171508383	a first step in
0.0170856443	certain number of
0.0170735048	this study uses
0.0170599921	very efficient for
0.0170343813	a key issue for
0.0170249649	this challenge by
0.0170056653	a prototype implementation of
0.0169855201	the bottleneck of
0.0169855201	a demand for
0.0169855201	a history of
0.0169754574	two examples of
0.0169453240	first introduced by
0.0167649376	very complex and
0.0167237922	more and more important in
0.0166517765	in cooperation with
0.0166517765	an abstraction of
0.0166508383	a lot of attention in
0.0165368032	in areas such as
0.0165368032	very efficient in
0.0165075092	the numerical results show
0.0165061180	very effective for
0.0164909031	a key step in
0.0164754574	each component of
0.0163954282	also suitable for
0.0163192724	by comparing with
0.0162694236	an advantage of
0.0161817726	not result in
0.0161231571	better performance in
0.0161167764	an open problem in
0.0159720561	our experimental results on
0.0159534699	useful information for
0.0159232744	first phase of
0.0156517765	in many areas of
0.0155756193	also provided to
0.0154614064	also included in
0.0152326151	as demonstrated by
0.0152289100	good performance for
0.0149510033	not account for
0.0148478918	in practice however
0.0147053812	new formulation of
0.0143367905	by making use
0.0142154411	several aspects of
0.0139493164	new tool for
0.0128845291	same type of
0.0127628587	novel method to
